** Generated by : ImportExport Version 6.6.360.d67753fae
** ----------------------------------------------------------------
**
*Node
1, 36.000000, 228.000000, 0.000000
2, 40.000000, 228.000000, 0.000000
3, 44.000000, 228.000000, 0.000000
4, 48.000000, 228.000000, 0.000000
5, 52.000000, 228.000000, 0.000000
6, 56.000000, 228.000000, 0.000000
7, 60.000000, 228.000000, 0.000000
8, 64.000000, 228.000000, 0.000000
9, 68.000000, 228.000000, 0.000000
10, 72.000000, 228.000000, 0.000000
11, 36.000000, 232.000000, 0.000000
12, 40.000000, 232.000000, 0.000000
13, 44.000000, 232.000000, 0.000000
14, 48.000000, 232.000000, 0.000000
15, 52.000000, 232.000000, 0.000000
16, 56.000000, 232.000000, 0.000000
17, 60.000000, 232.000000, 0.000000
18, 64.000000, 232.000000, 0.000000
19, 68.000000, 232.000000, 0.000000
20, 72.000000, 232.000000, 0.000000
21, 36.000000, 236.000000, 0.000000
22, 40.000000, 236.000000, 0.000000
23, 44.000000, 236.000000, 0.000000
24, 48.000000, 236.000000, 0.000000
25, 52.000000, 236.000000, 0.000000
26, 56.000000, 236.000000, 0.000000
27, 60.000000, 236.000000, 0.000000
28, 64.000000, 236.000000, 0.000000
29, 68.000000, 236.000000, 0.000000
30, 72.000000, 236.000000, 0.000000
31, 36.000000, 240.000000, 0.000000
32, 40.000000, 240.000000, 0.000000
33, 44.000000, 240.000000, 0.000000
34, 48.000000, 240.000000, 0.000000
35, 52.000000, 240.000000, 0.000000
36, 56.000000, 240.000000, 0.000000
37, 60.000000, 240.000000, 0.000000
38, 64.000000, 240.000000, 0.000000
39, 68.000000, 240.000000, 0.000000
40, 72.000000, 240.000000, 0.000000
41, 36.000000, 244.000000, 0.000000
42, 40.000000, 244.000000, 0.000000
43, 44.000000, 244.000000, 0.000000
44, 48.000000, 244.000000, 0.000000
45, 52.000000, 244.000000, 0.000000
46, 56.000000, 244.000000, 0.000000
47, 60.000000, 244.000000, 0.000000
48, 64.000000, 244.000000, 0.000000
49, 68.000000, 244.000000, 0.000000
50, 72.000000, 244.000000, 0.000000
51, 36.000000, 248.000000, 0.000000
52, 40.000000, 248.000000, 0.000000
53, 44.000000, 248.000000, 0.000000
54, 48.000000, 248.000000, 0.000000
55, 52.000000, 248.000000, 0.000000
56, 56.000000, 248.000000, 0.000000
57, 60.000000, 248.000000, 0.000000
58, 64.000000, 248.000000, 0.000000
59, 68.000000, 248.000000, 0.000000
60, 72.000000, 248.000000, 0.000000
61, 36.000000, 252.000000, 0.000000
62, 40.000000, 252.000000, 0.000000
63, 44.000000, 252.000000, 0.000000
64, 48.000000, 252.000000, 0.000000
65, 52.000000, 252.000000, 0.000000
66, 56.000000, 252.000000, 0.000000
67, 60.000000, 252.000000, 0.000000
68, 64.000000, 252.000000, 0.000000
69, 68.000000, 252.000000, 0.000000
70, 72.000000, 252.000000, 0.000000
71, 36.000000, 256.000000, 0.000000
72, 40.000000, 256.000000, 0.000000
73, 44.000000, 256.000000, 0.000000
74, 48.000000, 256.000000, 0.000000
75, 52.000000, 256.000000, 0.000000
76, 56.000000, 256.000000, 0.000000
77, 60.000000, 256.000000, 0.000000
78, 64.000000, 256.000000, 0.000000
79, 68.000000, 256.000000, 0.000000
80, 72.000000, 256.000000, 0.000000
81, 36.000000, 260.000000, 0.000000
82, 40.000000, 260.000000, 0.000000
83, 44.000000, 260.000000, 0.000000
84, 48.000000, 260.000000, 0.000000
85, 52.000000, 260.000000, 0.000000
86, 56.000000, 260.000000, 0.000000
87, 60.000000, 260.000000, 0.000000
88, 64.000000, 260.000000, 0.000000
89, 68.000000, 260.000000, 0.000000
90, 72.000000, 260.000000, 0.000000
91, 36.000000, 264.000000, 0.000000
92, 40.000000, 264.000000, 0.000000
93, 44.000000, 264.000000, 0.000000
94, 48.000000, 264.000000, 0.000000
95, 52.000000, 264.000000, 0.000000
96, 56.000000, 264.000000, 0.000000
97, 60.000000, 264.000000, 0.000000
98, 64.000000, 264.000000, 0.000000
99, 68.000000, 264.000000, 0.000000
100, 72.000000, 264.000000, 0.000000
101, 36.000000, 268.000000, 0.000000
102, 40.000000, 268.000000, 0.000000
103, 44.000000, 268.000000, 0.000000
104, 48.000000, 268.000000, 0.000000
105, 52.000000, 268.000000, 0.000000
106, 56.000000, 268.000000, 0.000000
107, 60.000000, 268.000000, 0.000000
108, 64.000000, 268.000000, 0.000000
109, 68.000000, 268.000000, 0.000000
110, 72.000000, 268.000000, 0.000000
111, 36.000000, 272.000000, 0.000000
112, 40.000000, 272.000000, 0.000000
113, 44.000000, 272.000000, 0.000000
114, 48.000000, 272.000000, 0.000000
115, 52.000000, 272.000000, 0.000000
116, 56.000000, 272.000000, 0.000000
117, 60.000000, 272.000000, 0.000000
118, 64.000000, 272.000000, 0.000000
119, 68.000000, 272.000000, 0.000000
120, 72.000000, 272.000000, 0.000000
121, 36.000000, 276.000000, 0.000000
122, 40.000000, 276.000000, 0.000000
123, 44.000000, 276.000000, 0.000000
124, 48.000000, 276.000000, 0.000000
125, 52.000000, 276.000000, 0.000000
126, 56.000000, 276.000000, 0.000000
127, 60.000000, 276.000000, 0.000000
128, 64.000000, 276.000000, 0.000000
129, 68.000000, 276.000000, 0.000000
130, 72.000000, 276.000000, 0.000000
131, 36.000000, 280.000000, 0.000000
132, 40.000000, 280.000000, 0.000000
133, 44.000000, 280.000000, 0.000000
134, 48.000000, 280.000000, 0.000000
135, 52.000000, 280.000000, 0.000000
136, 56.000000, 280.000000, 0.000000
137, 60.000000, 280.000000, 0.000000
138, 64.000000, 280.000000, 0.000000
139, 68.000000, 280.000000, 0.000000
140, 72.000000, 280.000000, 0.000000
141, 36.000000, 284.000000, 0.000000
142, 40.000000, 284.000000, 0.000000
143, 44.000000, 284.000000, 0.000000
144, 48.000000, 284.000000, 0.000000
145, 52.000000, 284.000000, 0.000000
146, 56.000000, 284.000000, 0.000000
147, 60.000000, 284.000000, 0.000000
148, 64.000000, 284.000000, 0.000000
149, 68.000000, 284.000000, 0.000000
150, 72.000000, 284.000000, 0.000000
151, 36.000000, 288.000000, 0.000000
152, 40.000000, 288.000000, 0.000000
153, 44.000000, 288.000000, 0.000000
154, 48.000000, 288.000000, 0.000000
155, 52.000000, 288.000000, 0.000000
156, 56.000000, 288.000000, 0.000000
157, 60.000000, 288.000000, 0.000000
158, 64.000000, 288.000000, 0.000000
159, 68.000000, 288.000000, 0.000000
160, 72.000000, 288.000000, 0.000000
161, 36.000000, 292.000000, 0.000000
162, 40.000000, 292.000000, 0.000000
163, 44.000000, 292.000000, 0.000000
164, 48.000000, 292.000000, 0.000000
165, 52.000000, 292.000000, 0.000000
166, 56.000000, 292.000000, 0.000000
167, 60.000000, 292.000000, 0.000000
168, 64.000000, 292.000000, 0.000000
169, 68.000000, 292.000000, 0.000000
170, 72.000000, 292.000000, 0.000000
171, 36.000000, 296.000000, 0.000000
172, 40.000000, 296.000000, 0.000000
173, 44.000000, 296.000000, 0.000000
174, 48.000000, 296.000000, 0.000000
175, 52.000000, 296.000000, 0.000000
176, 56.000000, 296.000000, 0.000000
177, 60.000000, 296.000000, 0.000000
178, 64.000000, 296.000000, 0.000000
179, 68.000000, 296.000000, 0.000000
180, 72.000000, 296.000000, 0.000000
181, 36.000000, 300.000000, 0.000000
182, 40.000000, 300.000000, 0.000000
183, 44.000000, 300.000000, 0.000000
184, 48.000000, 300.000000, 0.000000
185, 52.000000, 300.000000, 0.000000
186, 56.000000, 300.000000, 0.000000
187, 60.000000, 300.000000, 0.000000
188, 64.000000, 300.000000, 0.000000
189, 68.000000, 300.000000, 0.000000
190, 72.000000, 300.000000, 0.000000
191, 36.000000, 304.000000, 0.000000
192, 40.000000, 304.000000, 0.000000
193, 44.000000, 304.000000, 0.000000
194, 48.000000, 304.000000, 0.000000
195, 52.000000, 304.000000, 0.000000
196, 56.000000, 304.000000, 0.000000
197, 60.000000, 304.000000, 0.000000
198, 64.000000, 304.000000, 0.000000
199, 68.000000, 304.000000, 0.000000
200, 72.000000, 304.000000, 0.000000
201, 36.000000, 308.000000, 0.000000
202, 40.000000, 308.000000, 0.000000
203, 44.000000, 308.000000, 0.000000
204, 48.000000, 308.000000, 0.000000
205, 52.000000, 308.000000, 0.000000
206, 56.000000, 308.000000, 0.000000
207, 60.000000, 308.000000, 0.000000
208, 64.000000, 308.000000, 0.000000
209, 68.000000, 308.000000, 0.000000
210, 72.000000, 308.000000, 0.000000
211, 36.000000, 312.000000, 0.000000
212, 40.000000, 312.000000, 0.000000
213, 44.000000, 312.000000, 0.000000
214, 48.000000, 312.000000, 0.000000
215, 52.000000, 312.000000, 0.000000
216, 56.000000, 312.000000, 0.000000
217, 60.000000, 312.000000, 0.000000
218, 64.000000, 312.000000, 0.000000
219, 68.000000, 312.000000, 0.000000
220, 72.000000, 312.000000, 0.000000
221, 36.000000, 316.000000, 0.000000
222, 40.000000, 316.000000, 0.000000
223, 44.000000, 316.000000, 0.000000
224, 48.000000, 316.000000, 0.000000
225, 52.000000, 316.000000, 0.000000
226, 56.000000, 316.000000, 0.000000
227, 60.000000, 316.000000, 0.000000
228, 64.000000, 316.000000, 0.000000
229, 68.000000, 316.000000, 0.000000
230, 72.000000, 316.000000, 0.000000
231, 36.000000, 320.000000, 0.000000
232, 40.000000, 320.000000, 0.000000
233, 44.000000, 320.000000, 0.000000
234, 48.000000, 320.000000, 0.000000
235, 52.000000, 320.000000, 0.000000
236, 56.000000, 320.000000, 0.000000
237, 60.000000, 320.000000, 0.000000
238, 64.000000, 320.000000, 0.000000
239, 68.000000, 320.000000, 0.000000
240, 72.000000, 320.000000, 0.000000
241, 36.000000, 324.000000, 0.000000
242, 40.000000, 324.000000, 0.000000
243, 44.000000, 324.000000, 0.000000
244, 48.000000, 324.000000, 0.000000
245, 52.000000, 324.000000, 0.000000
246, 56.000000, 324.000000, 0.000000
247, 60.000000, 324.000000, 0.000000
248, 64.000000, 324.000000, 0.000000
249, 68.000000, 324.000000, 0.000000
250, 72.000000, 324.000000, 0.000000
251, 36.000000, 328.000000, 0.000000
252, 40.000000, 328.000000, 0.000000
253, 44.000000, 328.000000, 0.000000
254, 48.000000, 328.000000, 0.000000
255, 52.000000, 328.000000, 0.000000
256, 56.000000, 328.000000, 0.000000
257, 60.000000, 328.000000, 0.000000
258, 64.000000, 328.000000, 0.000000
259, 68.000000, 328.000000, 0.000000
260, 72.000000, 328.000000, 0.000000
261, 36.000000, 332.000000, 0.000000
262, 40.000000, 332.000000, 0.000000
263, 44.000000, 332.000000, 0.000000
264, 48.000000, 332.000000, 0.000000
265, 52.000000, 332.000000, 0.000000
266, 56.000000, 332.000000, 0.000000
267, 60.000000, 332.000000, 0.000000
268, 64.000000, 332.000000, 0.000000
269, 68.000000, 332.000000, 0.000000
270, 72.000000, 332.000000, 0.000000
271, 36.000000, 336.000000, 0.000000
272, 40.000000, 336.000000, 0.000000
273, 44.000000, 336.000000, 0.000000
274, 48.000000, 336.000000, 0.000000
275, 52.000000, 336.000000, 0.000000
276, 56.000000, 336.000000, 0.000000
277, 60.000000, 336.000000, 0.000000
278, 64.000000, 336.000000, 0.000000
279, 68.000000, 336.000000, 0.000000
280, 72.000000, 336.000000, 0.000000
281, 36.000000, 340.000000, 0.000000
282, 40.000000, 340.000000, 0.000000
283, 44.000000, 340.000000, 0.000000
284, 48.000000, 340.000000, 0.000000
285, 52.000000, 340.000000, 0.000000
286, 56.000000, 340.000000, 0.000000
287, 60.000000, 340.000000, 0.000000
288, 64.000000, 340.000000, 0.000000
289, 68.000000, 340.000000, 0.000000
290, 72.000000, 340.000000, 0.000000
291, 36.000000, 344.000000, 0.000000
292, 40.000000, 344.000000, 0.000000
293, 44.000000, 344.000000, 0.000000
294, 48.000000, 344.000000, 0.000000
295, 52.000000, 344.000000, 0.000000
296, 56.000000, 344.000000, 0.000000
297, 60.000000, 344.000000, 0.000000
298, 64.000000, 344.000000, 0.000000
299, 68.000000, 344.000000, 0.000000
300, 72.000000, 344.000000, 0.000000
301, 36.000000, 348.000000, 0.000000
302, 40.000000, 348.000000, 0.000000
303, 44.000000, 348.000000, 0.000000
304, 48.000000, 348.000000, 0.000000
305, 52.000000, 348.000000, 0.000000
306, 56.000000, 348.000000, 0.000000
307, 60.000000, 348.000000, 0.000000
308, 64.000000, 348.000000, 0.000000
309, 68.000000, 348.000000, 0.000000
310, 72.000000, 348.000000, 0.000000
311, 36.000000, 352.000000, 0.000000
312, 40.000000, 352.000000, 0.000000
313, 44.000000, 352.000000, 0.000000
314, 48.000000, 352.000000, 0.000000
315, 52.000000, 352.000000, 0.000000
316, 56.000000, 352.000000, 0.000000
317, 60.000000, 352.000000, 0.000000
318, 64.000000, 352.000000, 0.000000
319, 68.000000, 352.000000, 0.000000
320, 72.000000, 352.000000, 0.000000
321, 36.000000, 356.000000, 0.000000
322, 40.000000, 356.000000, 0.000000
323, 44.000000, 356.000000, 0.000000
324, 48.000000, 356.000000, 0.000000
325, 52.000000, 356.000000, 0.000000
326, 56.000000, 356.000000, 0.000000
327, 60.000000, 356.000000, 0.000000
328, 64.000000, 356.000000, 0.000000
329, 68.000000, 356.000000, 0.000000
330, 72.000000, 356.000000, 0.000000
331, 36.000000, 360.000000, 0.000000
332, 40.000000, 360.000000, 0.000000
333, 44.000000, 360.000000, 0.000000
334, 48.000000, 360.000000, 0.000000
335, 52.000000, 360.000000, 0.000000
336, 56.000000, 360.000000, 0.000000
337, 60.000000, 360.000000, 0.000000
338, 64.000000, 360.000000, 0.000000
339, 68.000000, 360.000000, 0.000000
340, 72.000000, 360.000000, 0.000000
341, 36.000000, 364.000000, 0.000000
342, 40.000000, 364.000000, 0.000000
343, 44.000000, 364.000000, 0.000000
344, 48.000000, 364.000000, 0.000000
345, 52.000000, 364.000000, 0.000000
346, 56.000000, 364.000000, 0.000000
347, 60.000000, 364.000000, 0.000000
348, 64.000000, 364.000000, 0.000000
349, 68.000000, 364.000000, 0.000000
350, 72.000000, 364.000000, 0.000000
351, 36.000000, 368.000000, 0.000000
352, 40.000000, 368.000000, 0.000000
353, 44.000000, 368.000000, 0.000000
354, 48.000000, 368.000000, 0.000000
355, 52.000000, 368.000000, 0.000000
356, 56.000000, 368.000000, 0.000000
357, 60.000000, 368.000000, 0.000000
358, 64.000000, 368.000000, 0.000000
359, 68.000000, 368.000000, 0.000000
360, 72.000000, 368.000000, 0.000000
361, 36.000000, 372.000000, 0.000000
362, 40.000000, 372.000000, 0.000000
363, 44.000000, 372.000000, 0.000000
364, 48.000000, 372.000000, 0.000000
365, 52.000000, 372.000000, 0.000000
366, 56.000000, 372.000000, 0.000000
367, 60.000000, 372.000000, 0.000000
368, 64.000000, 372.000000, 0.000000
369, 68.000000, 372.000000, 0.000000
370, 72.000000, 372.000000, 0.000000
371, 36.000000, 376.000000, 0.000000
372, 40.000000, 376.000000, 0.000000
373, 44.000000, 376.000000, 0.000000
374, 48.000000, 376.000000, 0.000000
375, 52.000000, 376.000000, 0.000000
376, 56.000000, 376.000000, 0.000000
377, 60.000000, 376.000000, 0.000000
378, 64.000000, 376.000000, 0.000000
379, 68.000000, 376.000000, 0.000000
380, 72.000000, 376.000000, 0.000000
381, 36.000000, 380.000000, 0.000000
382, 40.000000, 380.000000, 0.000000
383, 44.000000, 380.000000, 0.000000
384, 48.000000, 380.000000, 0.000000
385, 52.000000, 380.000000, 0.000000
386, 56.000000, 380.000000, 0.000000
387, 60.000000, 380.000000, 0.000000
388, 64.000000, 380.000000, 0.000000
389, 68.000000, 380.000000, 0.000000
390, 72.000000, 380.000000, 0.000000
391, 36.000000, 384.000000, 0.000000
392, 40.000000, 384.000000, 0.000000
393, 44.000000, 384.000000, 0.000000
394, 48.000000, 384.000000, 0.000000
395, 52.000000, 384.000000, 0.000000
396, 56.000000, 384.000000, 0.000000
397, 60.000000, 384.000000, 0.000000
398, 64.000000, 384.000000, 0.000000
399, 68.000000, 384.000000, 0.000000
400, 72.000000, 384.000000, 0.000000
401, 36.000000, 388.000000, 0.000000
402, 40.000000, 388.000000, 0.000000
403, 44.000000, 388.000000, 0.000000
404, 48.000000, 388.000000, 0.000000
405, 52.000000, 388.000000, 0.000000
406, 56.000000, 388.000000, 0.000000
407, 60.000000, 388.000000, 0.000000
408, 64.000000, 388.000000, 0.000000
409, 68.000000, 388.000000, 0.000000
410, 72.000000, 388.000000, 0.000000
411, 36.000000, 392.000000, 0.000000
412, 40.000000, 392.000000, 0.000000
413, 44.000000, 392.000000, 0.000000
414, 48.000000, 392.000000, 0.000000
415, 52.000000, 392.000000, 0.000000
416, 56.000000, 392.000000, 0.000000
417, 60.000000, 392.000000, 0.000000
418, 64.000000, 392.000000, 0.000000
419, 68.000000, 392.000000, 0.000000
420, 72.000000, 392.000000, 0.000000
421, 36.000000, 396.000000, 0.000000
422, 40.000000, 396.000000, 0.000000
423, 44.000000, 396.000000, 0.000000
424, 48.000000, 396.000000, 0.000000
425, 52.000000, 396.000000, 0.000000
426, 56.000000, 396.000000, 0.000000
427, 60.000000, 396.000000, 0.000000
428, 64.000000, 396.000000, 0.000000
429, 68.000000, 396.000000, 0.000000
430, 72.000000, 396.000000, 0.000000
431, 36.000000, 400.000000, 0.000000
432, 40.000000, 400.000000, 0.000000
433, 44.000000, 400.000000, 0.000000
434, 48.000000, 400.000000, 0.000000
435, 52.000000, 400.000000, 0.000000
436, 56.000000, 400.000000, 0.000000
437, 60.000000, 400.000000, 0.000000
438, 64.000000, 400.000000, 0.000000
439, 68.000000, 400.000000, 0.000000
440, 72.000000, 400.000000, 0.000000
441, 36.000000, 404.000000, 0.000000
442, 40.000000, 404.000000, 0.000000
443, 44.000000, 404.000000, 0.000000
444, 48.000000, 404.000000, 0.000000
445, 52.000000, 404.000000, 0.000000
446, 56.000000, 404.000000, 0.000000
447, 60.000000, 404.000000, 0.000000
448, 64.000000, 404.000000, 0.000000
449, 68.000000, 404.000000, 0.000000
450, 72.000000, 404.000000, 0.000000
451, 36.000000, 408.000000, 0.000000
452, 40.000000, 408.000000, 0.000000
453, 44.000000, 408.000000, 0.000000
454, 48.000000, 408.000000, 0.000000
455, 52.000000, 408.000000, 0.000000
456, 56.000000, 408.000000, 0.000000
457, 60.000000, 408.000000, 0.000000
458, 64.000000, 408.000000, 0.000000
459, 68.000000, 408.000000, 0.000000
460, 72.000000, 408.000000, 0.000000
461, 36.000000, 412.000000, 0.000000
462, 40.000000, 412.000000, 0.000000
463, 44.000000, 412.000000, 0.000000
464, 48.000000, 412.000000, 0.000000
465, 52.000000, 412.000000, 0.000000
466, 56.000000, 412.000000, 0.000000
467, 60.000000, 412.000000, 0.000000
468, 64.000000, 412.000000, 0.000000
469, 68.000000, 412.000000, 0.000000
470, 72.000000, 412.000000, 0.000000
471, 36.000000, 416.000000, 0.000000
472, 40.000000, 416.000000, 0.000000
473, 44.000000, 416.000000, 0.000000
474, 48.000000, 416.000000, 0.000000
475, 52.000000, 416.000000, 0.000000
476, 56.000000, 416.000000, 0.000000
477, 60.000000, 416.000000, 0.000000
478, 64.000000, 416.000000, 0.000000
479, 68.000000, 416.000000, 0.000000
480, 72.000000, 416.000000, 0.000000
481, 36.000000, 420.000000, 0.000000
482, 40.000000, 420.000000, 0.000000
483, 44.000000, 420.000000, 0.000000
484, 48.000000, 420.000000, 0.000000
485, 52.000000, 420.000000, 0.000000
486, 56.000000, 420.000000, 0.000000
487, 60.000000, 420.000000, 0.000000
488, 64.000000, 420.000000, 0.000000
489, 68.000000, 420.000000, 0.000000
490, 72.000000, 420.000000, 0.000000
491, 36.000000, 424.000000, 0.000000
492, 40.000000, 424.000000, 0.000000
493, 44.000000, 424.000000, 0.000000
494, 48.000000, 424.000000, 0.000000
495, 52.000000, 424.000000, 0.000000
496, 56.000000, 424.000000, 0.000000
497, 60.000000, 424.000000, 0.000000
498, 64.000000, 424.000000, 0.000000
499, 68.000000, 424.000000, 0.000000
500, 72.000000, 424.000000, 0.000000
501, 36.000000, 428.000000, 0.000000
502, 40.000000, 428.000000, 0.000000
503, 44.000000, 428.000000, 0.000000
504, 48.000000, 428.000000, 0.000000
505, 52.000000, 428.000000, 0.000000
506, 56.000000, 428.000000, 0.000000
507, 60.000000, 428.000000, 0.000000
508, 64.000000, 428.000000, 0.000000
509, 68.000000, 428.000000, 0.000000
510, 72.000000, 428.000000, 0.000000
511, 36.000000, 432.000000, 0.000000
512, 40.000000, 432.000000, 0.000000
513, 44.000000, 432.000000, 0.000000
514, 48.000000, 432.000000, 0.000000
515, 52.000000, 432.000000, 0.000000
516, 56.000000, 432.000000, 0.000000
517, 60.000000, 432.000000, 0.000000
518, 64.000000, 432.000000, 0.000000
519, 68.000000, 432.000000, 0.000000
520, 72.000000, 432.000000, 0.000000
521, 36.000000, 436.000000, 0.000000
522, 40.000000, 436.000000, 0.000000
523, 44.000000, 436.000000, 0.000000
524, 48.000000, 436.000000, 0.000000
525, 52.000000, 436.000000, 0.000000
526, 56.000000, 436.000000, 0.000000
527, 60.000000, 436.000000, 0.000000
528, 64.000000, 436.000000, 0.000000
529, 68.000000, 436.000000, 0.000000
530, 72.000000, 436.000000, 0.000000
531, 36.000000, 440.000000, 0.000000
532, 40.000000, 440.000000, 0.000000
533, 44.000000, 440.000000, 0.000000
534, 48.000000, 440.000000, 0.000000
535, 52.000000, 440.000000, 0.000000
536, 56.000000, 440.000000, 0.000000
537, 60.000000, 440.000000, 0.000000
538, 64.000000, 440.000000, 0.000000
539, 68.000000, 440.000000, 0.000000
540, 72.000000, 440.000000, 0.000000
541, 36.000000, 444.000000, 0.000000
542, 40.000000, 444.000000, 0.000000
543, 44.000000, 444.000000, 0.000000
544, 48.000000, 444.000000, 0.000000
545, 52.000000, 444.000000, 0.000000
546, 56.000000, 444.000000, 0.000000
547, 60.000000, 444.000000, 0.000000
548, 64.000000, 444.000000, 0.000000
549, 68.000000, 444.000000, 0.000000
550, 72.000000, 444.000000, 0.000000
551, 36.000000, 448.000000, 0.000000
552, 40.000000, 448.000000, 0.000000
553, 44.000000, 448.000000, 0.000000
554, 48.000000, 448.000000, 0.000000
555, 52.000000, 448.000000, 0.000000
556, 56.000000, 448.000000, 0.000000
557, 60.000000, 448.000000, 0.000000
558, 64.000000, 448.000000, 0.000000
559, 68.000000, 448.000000, 0.000000
560, 72.000000, 448.000000, 0.000000
561, 36.000000, 452.000000, 0.000000
562, 40.000000, 452.000000, 0.000000
563, 44.000000, 452.000000, 0.000000
564, 48.000000, 452.000000, 0.000000
565, 52.000000, 452.000000, 0.000000
566, 56.000000, 452.000000, 0.000000
567, 60.000000, 452.000000, 0.000000
568, 64.000000, 452.000000, 0.000000
569, 68.000000, 452.000000, 0.000000
570, 72.000000, 452.000000, 0.000000
571, 36.000000, 456.000000, 0.000000
572, 40.000000, 456.000000, 0.000000
573, 44.000000, 456.000000, 0.000000
574, 48.000000, 456.000000, 0.000000
575, 52.000000, 456.000000, 0.000000
576, 56.000000, 456.000000, 0.000000
577, 60.000000, 456.000000, 0.000000
578, 64.000000, 456.000000, 0.000000
579, 68.000000, 456.000000, 0.000000
580, 72.000000, 456.000000, 0.000000
581, 36.000000, 228.000000, 4.000000
582, 40.000000, 228.000000, 4.000000
583, 44.000000, 228.000000, 4.000000
584, 48.000000, 228.000000, 4.000000
585, 52.000000, 228.000000, 4.000000
586, 56.000000, 228.000000, 4.000000
587, 60.000000, 228.000000, 4.000000
588, 64.000000, 228.000000, 4.000000
589, 68.000000, 228.000000, 4.000000
590, 72.000000, 228.000000, 4.000000
591, 36.000000, 232.000000, 4.000000
592, 40.000000, 232.000000, 4.000000
593, 44.000000, 232.000000, 4.000000
594, 48.000000, 232.000000, 4.000000
595, 52.000000, 232.000000, 4.000000
596, 56.000000, 232.000000, 4.000000
597, 60.000000, 232.000000, 4.000000
598, 64.000000, 232.000000, 4.000000
599, 68.000000, 232.000000, 4.000000
600, 72.000000, 232.000000, 4.000000
601, 36.000000, 236.000000, 4.000000
602, 40.000000, 236.000000, 4.000000
603, 44.000000, 236.000000, 4.000000
604, 48.000000, 236.000000, 4.000000
605, 52.000000, 236.000000, 4.000000
606, 56.000000, 236.000000, 4.000000
607, 60.000000, 236.000000, 4.000000
608, 64.000000, 236.000000, 4.000000
609, 68.000000, 236.000000, 4.000000
610, 72.000000, 236.000000, 4.000000
611, 36.000000, 240.000000, 4.000000
612, 40.000000, 240.000000, 4.000000
613, 44.000000, 240.000000, 4.000000
614, 48.000000, 240.000000, 4.000000
615, 52.000000, 240.000000, 4.000000
616, 56.000000, 240.000000, 4.000000
617, 60.000000, 240.000000, 4.000000
618, 64.000000, 240.000000, 4.000000
619, 68.000000, 240.000000, 4.000000
620, 72.000000, 240.000000, 4.000000
621, 36.000000, 244.000000, 4.000000
622, 40.000000, 244.000000, 4.000000
623, 44.000000, 244.000000, 4.000000
624, 48.000000, 244.000000, 4.000000
625, 52.000000, 244.000000, 4.000000
626, 56.000000, 244.000000, 4.000000
627, 60.000000, 244.000000, 4.000000
628, 64.000000, 244.000000, 4.000000
629, 68.000000, 244.000000, 4.000000
630, 72.000000, 244.000000, 4.000000
631, 36.000000, 248.000000, 4.000000
632, 40.000000, 248.000000, 4.000000
633, 44.000000, 248.000000, 4.000000
634, 48.000000, 248.000000, 4.000000
635, 52.000000, 248.000000, 4.000000
636, 56.000000, 248.000000, 4.000000
637, 60.000000, 248.000000, 4.000000
638, 64.000000, 248.000000, 4.000000
639, 68.000000, 248.000000, 4.000000
640, 72.000000, 248.000000, 4.000000
641, 36.000000, 252.000000, 4.000000
642, 40.000000, 252.000000, 4.000000
643, 44.000000, 252.000000, 4.000000
644, 48.000000, 252.000000, 4.000000
645, 52.000000, 252.000000, 4.000000
646, 56.000000, 252.000000, 4.000000
647, 60.000000, 252.000000, 4.000000
648, 64.000000, 252.000000, 4.000000
649, 68.000000, 252.000000, 4.000000
650, 72.000000, 252.000000, 4.000000
651, 36.000000, 256.000000, 4.000000
652, 40.000000, 256.000000, 4.000000
653, 44.000000, 256.000000, 4.000000
654, 48.000000, 256.000000, 4.000000
655, 52.000000, 256.000000, 4.000000
656, 56.000000, 256.000000, 4.000000
657, 60.000000, 256.000000, 4.000000
658, 64.000000, 256.000000, 4.000000
659, 68.000000, 256.000000, 4.000000
660, 72.000000, 256.000000, 4.000000
661, 36.000000, 260.000000, 4.000000
662, 40.000000, 260.000000, 4.000000
663, 44.000000, 260.000000, 4.000000
664, 48.000000, 260.000000, 4.000000
665, 52.000000, 260.000000, 4.000000
666, 56.000000, 260.000000, 4.000000
667, 60.000000, 260.000000, 4.000000
668, 64.000000, 260.000000, 4.000000
669, 68.000000, 260.000000, 4.000000
670, 72.000000, 260.000000, 4.000000
671, 36.000000, 264.000000, 4.000000
672, 40.000000, 264.000000, 4.000000
673, 44.000000, 264.000000, 4.000000
674, 48.000000, 264.000000, 4.000000
675, 52.000000, 264.000000, 4.000000
676, 56.000000, 264.000000, 4.000000
677, 60.000000, 264.000000, 4.000000
678, 64.000000, 264.000000, 4.000000
679, 68.000000, 264.000000, 4.000000
680, 72.000000, 264.000000, 4.000000
681, 36.000000, 268.000000, 4.000000
682, 40.000000, 268.000000, 4.000000
683, 44.000000, 268.000000, 4.000000
684, 48.000000, 268.000000, 4.000000
685, 52.000000, 268.000000, 4.000000
686, 56.000000, 268.000000, 4.000000
687, 60.000000, 268.000000, 4.000000
688, 64.000000, 268.000000, 4.000000
689, 68.000000, 268.000000, 4.000000
690, 72.000000, 268.000000, 4.000000
691, 36.000000, 272.000000, 4.000000
692, 40.000000, 272.000000, 4.000000
693, 44.000000, 272.000000, 4.000000
694, 48.000000, 272.000000, 4.000000
695, 52.000000, 272.000000, 4.000000
696, 56.000000, 272.000000, 4.000000
697, 60.000000, 272.000000, 4.000000
698, 64.000000, 272.000000, 4.000000
699, 68.000000, 272.000000, 4.000000
700, 72.000000, 272.000000, 4.000000
701, 36.000000, 276.000000, 4.000000
702, 40.000000, 276.000000, 4.000000
703, 44.000000, 276.000000, 4.000000
704, 48.000000, 276.000000, 4.000000
705, 52.000000, 276.000000, 4.000000
706, 56.000000, 276.000000, 4.000000
707, 60.000000, 276.000000, 4.000000
708, 64.000000, 276.000000, 4.000000
709, 68.000000, 276.000000, 4.000000
710, 72.000000, 276.000000, 4.000000
711, 36.000000, 280.000000, 4.000000
712, 40.000000, 280.000000, 4.000000
713, 44.000000, 280.000000, 4.000000
714, 48.000000, 280.000000, 4.000000
715, 52.000000, 280.000000, 4.000000
716, 56.000000, 280.000000, 4.000000
717, 60.000000, 280.000000, 4.000000
718, 64.000000, 280.000000, 4.000000
719, 68.000000, 280.000000, 4.000000
720, 72.000000, 280.000000, 4.000000
721, 36.000000, 284.000000, 4.000000
722, 40.000000, 284.000000, 4.000000
723, 44.000000, 284.000000, 4.000000
724, 48.000000, 284.000000, 4.000000
725, 52.000000, 284.000000, 4.000000
726, 56.000000, 284.000000, 4.000000
727, 60.000000, 284.000000, 4.000000
728, 64.000000, 284.000000, 4.000000
729, 68.000000, 284.000000, 4.000000
730, 72.000000, 284.000000, 4.000000
731, 36.000000, 288.000000, 4.000000
732, 40.000000, 288.000000, 4.000000
733, 44.000000, 288.000000, 4.000000
734, 48.000000, 288.000000, 4.000000
735, 52.000000, 288.000000, 4.000000
736, 56.000000, 288.000000, 4.000000
737, 60.000000, 288.000000, 4.000000
738, 64.000000, 288.000000, 4.000000
739, 68.000000, 288.000000, 4.000000
740, 72.000000, 288.000000, 4.000000
741, 36.000000, 292.000000, 4.000000
742, 40.000000, 292.000000, 4.000000
743, 44.000000, 292.000000, 4.000000
744, 48.000000, 292.000000, 4.000000
745, 52.000000, 292.000000, 4.000000
746, 56.000000, 292.000000, 4.000000
747, 60.000000, 292.000000, 4.000000
748, 64.000000, 292.000000, 4.000000
749, 68.000000, 292.000000, 4.000000
750, 72.000000, 292.000000, 4.000000
751, 36.000000, 296.000000, 4.000000
752, 40.000000, 296.000000, 4.000000
753, 44.000000, 296.000000, 4.000000
754, 48.000000, 296.000000, 4.000000
755, 52.000000, 296.000000, 4.000000
756, 56.000000, 296.000000, 4.000000
757, 60.000000, 296.000000, 4.000000
758, 64.000000, 296.000000, 4.000000
759, 68.000000, 296.000000, 4.000000
760, 72.000000, 296.000000, 4.000000
761, 36.000000, 300.000000, 4.000000
762, 40.000000, 300.000000, 4.000000
763, 44.000000, 300.000000, 4.000000
764, 48.000000, 300.000000, 4.000000
765, 52.000000, 300.000000, 4.000000
766, 56.000000, 300.000000, 4.000000
767, 60.000000, 300.000000, 4.000000
768, 64.000000, 300.000000, 4.000000
769, 68.000000, 300.000000, 4.000000
770, 72.000000, 300.000000, 4.000000
771, 36.000000, 304.000000, 4.000000
772, 40.000000, 304.000000, 4.000000
773, 44.000000, 304.000000, 4.000000
774, 48.000000, 304.000000, 4.000000
775, 52.000000, 304.000000, 4.000000
776, 56.000000, 304.000000, 4.000000
777, 60.000000, 304.000000, 4.000000
778, 64.000000, 304.000000, 4.000000
779, 68.000000, 304.000000, 4.000000
780, 72.000000, 304.000000, 4.000000
781, 36.000000, 308.000000, 4.000000
782, 40.000000, 308.000000, 4.000000
783, 44.000000, 308.000000, 4.000000
784, 48.000000, 308.000000, 4.000000
785, 52.000000, 308.000000, 4.000000
786, 56.000000, 308.000000, 4.000000
787, 60.000000, 308.000000, 4.000000
788, 64.000000, 308.000000, 4.000000
789, 68.000000, 308.000000, 4.000000
790, 72.000000, 308.000000, 4.000000
791, 36.000000, 312.000000, 4.000000
792, 40.000000, 312.000000, 4.000000
793, 44.000000, 312.000000, 4.000000
794, 48.000000, 312.000000, 4.000000
795, 52.000000, 312.000000, 4.000000
796, 56.000000, 312.000000, 4.000000
797, 60.000000, 312.000000, 4.000000
798, 64.000000, 312.000000, 4.000000
799, 68.000000, 312.000000, 4.000000
800, 72.000000, 312.000000, 4.000000
801, 36.000000, 316.000000, 4.000000
802, 40.000000, 316.000000, 4.000000
803, 44.000000, 316.000000, 4.000000
804, 48.000000, 316.000000, 4.000000
805, 52.000000, 316.000000, 4.000000
806, 56.000000, 316.000000, 4.000000
807, 60.000000, 316.000000, 4.000000
808, 64.000000, 316.000000, 4.000000
809, 68.000000, 316.000000, 4.000000
810, 72.000000, 316.000000, 4.000000
811, 36.000000, 320.000000, 4.000000
812, 40.000000, 320.000000, 4.000000
813, 44.000000, 320.000000, 4.000000
814, 48.000000, 320.000000, 4.000000
815, 52.000000, 320.000000, 4.000000
816, 56.000000, 320.000000, 4.000000
817, 60.000000, 320.000000, 4.000000
818, 64.000000, 320.000000, 4.000000
819, 68.000000, 320.000000, 4.000000
820, 72.000000, 320.000000, 4.000000
821, 36.000000, 324.000000, 4.000000
822, 40.000000, 324.000000, 4.000000
823, 44.000000, 324.000000, 4.000000
824, 48.000000, 324.000000, 4.000000
825, 52.000000, 324.000000, 4.000000
826, 56.000000, 324.000000, 4.000000
827, 60.000000, 324.000000, 4.000000
828, 64.000000, 324.000000, 4.000000
829, 68.000000, 324.000000, 4.000000
830, 72.000000, 324.000000, 4.000000
831, 36.000000, 328.000000, 4.000000
832, 40.000000, 328.000000, 4.000000
833, 44.000000, 328.000000, 4.000000
834, 48.000000, 328.000000, 4.000000
835, 52.000000, 328.000000, 4.000000
836, 56.000000, 328.000000, 4.000000
837, 60.000000, 328.000000, 4.000000
838, 64.000000, 328.000000, 4.000000
839, 68.000000, 328.000000, 4.000000
840, 72.000000, 328.000000, 4.000000
841, 36.000000, 332.000000, 4.000000
842, 40.000000, 332.000000, 4.000000
843, 44.000000, 332.000000, 4.000000
844, 48.000000, 332.000000, 4.000000
845, 52.000000, 332.000000, 4.000000
846, 56.000000, 332.000000, 4.000000
847, 60.000000, 332.000000, 4.000000
848, 64.000000, 332.000000, 4.000000
849, 68.000000, 332.000000, 4.000000
850, 72.000000, 332.000000, 4.000000
851, 36.000000, 336.000000, 4.000000
852, 40.000000, 336.000000, 4.000000
853, 44.000000, 336.000000, 4.000000
854, 48.000000, 336.000000, 4.000000
855, 52.000000, 336.000000, 4.000000
856, 56.000000, 336.000000, 4.000000
857, 60.000000, 336.000000, 4.000000
858, 64.000000, 336.000000, 4.000000
859, 68.000000, 336.000000, 4.000000
860, 72.000000, 336.000000, 4.000000
861, 36.000000, 340.000000, 4.000000
862, 40.000000, 340.000000, 4.000000
863, 44.000000, 340.000000, 4.000000
864, 48.000000, 340.000000, 4.000000
865, 52.000000, 340.000000, 4.000000
866, 56.000000, 340.000000, 4.000000
867, 60.000000, 340.000000, 4.000000
868, 64.000000, 340.000000, 4.000000
869, 68.000000, 340.000000, 4.000000
870, 72.000000, 340.000000, 4.000000
871, 36.000000, 344.000000, 4.000000
872, 40.000000, 344.000000, 4.000000
873, 44.000000, 344.000000, 4.000000
874, 48.000000, 344.000000, 4.000000
875, 52.000000, 344.000000, 4.000000
876, 56.000000, 344.000000, 4.000000
877, 60.000000, 344.000000, 4.000000
878, 64.000000, 344.000000, 4.000000
879, 68.000000, 344.000000, 4.000000
880, 72.000000, 344.000000, 4.000000
881, 36.000000, 348.000000, 4.000000
882, 40.000000, 348.000000, 4.000000
883, 44.000000, 348.000000, 4.000000
884, 48.000000, 348.000000, 4.000000
885, 52.000000, 348.000000, 4.000000
886, 56.000000, 348.000000, 4.000000
887, 60.000000, 348.000000, 4.000000
888, 64.000000, 348.000000, 4.000000
889, 68.000000, 348.000000, 4.000000
890, 72.000000, 348.000000, 4.000000
891, 36.000000, 352.000000, 4.000000
892, 40.000000, 352.000000, 4.000000
893, 44.000000, 352.000000, 4.000000
894, 48.000000, 352.000000, 4.000000
895, 52.000000, 352.000000, 4.000000
896, 56.000000, 352.000000, 4.000000
897, 60.000000, 352.000000, 4.000000
898, 64.000000, 352.000000, 4.000000
899, 68.000000, 352.000000, 4.000000
900, 72.000000, 352.000000, 4.000000
901, 36.000000, 356.000000, 4.000000
902, 40.000000, 356.000000, 4.000000
903, 44.000000, 356.000000, 4.000000
904, 48.000000, 356.000000, 4.000000
905, 52.000000, 356.000000, 4.000000
906, 56.000000, 356.000000, 4.000000
907, 60.000000, 356.000000, 4.000000
908, 64.000000, 356.000000, 4.000000
909, 68.000000, 356.000000, 4.000000
910, 72.000000, 356.000000, 4.000000
911, 36.000000, 360.000000, 4.000000
912, 40.000000, 360.000000, 4.000000
913, 44.000000, 360.000000, 4.000000
914, 48.000000, 360.000000, 4.000000
915, 52.000000, 360.000000, 4.000000
916, 56.000000, 360.000000, 4.000000
917, 60.000000, 360.000000, 4.000000
918, 64.000000, 360.000000, 4.000000
919, 68.000000, 360.000000, 4.000000
920, 72.000000, 360.000000, 4.000000
921, 36.000000, 364.000000, 4.000000
922, 40.000000, 364.000000, 4.000000
923, 44.000000, 364.000000, 4.000000
924, 48.000000, 364.000000, 4.000000
925, 52.000000, 364.000000, 4.000000
926, 56.000000, 364.000000, 4.000000
927, 60.000000, 364.000000, 4.000000
928, 64.000000, 364.000000, 4.000000
929, 68.000000, 364.000000, 4.000000
930, 72.000000, 364.000000, 4.000000
931, 36.000000, 368.000000, 4.000000
932, 40.000000, 368.000000, 4.000000
933, 44.000000, 368.000000, 4.000000
934, 48.000000, 368.000000, 4.000000
935, 52.000000, 368.000000, 4.000000
936, 56.000000, 368.000000, 4.000000
937, 60.000000, 368.000000, 4.000000
938, 64.000000, 368.000000, 4.000000
939, 68.000000, 368.000000, 4.000000
940, 72.000000, 368.000000, 4.000000
941, 36.000000, 372.000000, 4.000000
942, 40.000000, 372.000000, 4.000000
943, 44.000000, 372.000000, 4.000000
944, 48.000000, 372.000000, 4.000000
945, 52.000000, 372.000000, 4.000000
946, 56.000000, 372.000000, 4.000000
947, 60.000000, 372.000000, 4.000000
948, 64.000000, 372.000000, 4.000000
949, 68.000000, 372.000000, 4.000000
950, 72.000000, 372.000000, 4.000000
951, 36.000000, 376.000000, 4.000000
952, 40.000000, 376.000000, 4.000000
953, 44.000000, 376.000000, 4.000000
954, 48.000000, 376.000000, 4.000000
955, 52.000000, 376.000000, 4.000000
956, 56.000000, 376.000000, 4.000000
957, 60.000000, 376.000000, 4.000000
958, 64.000000, 376.000000, 4.000000
959, 68.000000, 376.000000, 4.000000
960, 72.000000, 376.000000, 4.000000
961, 36.000000, 380.000000, 4.000000
962, 40.000000, 380.000000, 4.000000
963, 44.000000, 380.000000, 4.000000
964, 48.000000, 380.000000, 4.000000
965, 52.000000, 380.000000, 4.000000
966, 56.000000, 380.000000, 4.000000
967, 60.000000, 380.000000, 4.000000
968, 64.000000, 380.000000, 4.000000
969, 68.000000, 380.000000, 4.000000
970, 72.000000, 380.000000, 4.000000
971, 36.000000, 384.000000, 4.000000
972, 40.000000, 384.000000, 4.000000
973, 44.000000, 384.000000, 4.000000
974, 48.000000, 384.000000, 4.000000
975, 52.000000, 384.000000, 4.000000
976, 56.000000, 384.000000, 4.000000
977, 60.000000, 384.000000, 4.000000
978, 64.000000, 384.000000, 4.000000
979, 68.000000, 384.000000, 4.000000
980, 72.000000, 384.000000, 4.000000
981, 36.000000, 388.000000, 4.000000
982, 40.000000, 388.000000, 4.000000
983, 44.000000, 388.000000, 4.000000
984, 48.000000, 388.000000, 4.000000
985, 52.000000, 388.000000, 4.000000
986, 56.000000, 388.000000, 4.000000
987, 60.000000, 388.000000, 4.000000
988, 64.000000, 388.000000, 4.000000
989, 68.000000, 388.000000, 4.000000
990, 72.000000, 388.000000, 4.000000
991, 36.000000, 392.000000, 4.000000
992, 40.000000, 392.000000, 4.000000
993, 44.000000, 392.000000, 4.000000
994, 48.000000, 392.000000, 4.000000
995, 52.000000, 392.000000, 4.000000
996, 56.000000, 392.000000, 4.000000
997, 60.000000, 392.000000, 4.000000
998, 64.000000, 392.000000, 4.000000
999, 68.000000, 392.000000, 4.000000
1000, 72.000000, 392.000000, 4.000000
1001, 36.000000, 396.000000, 4.000000
1002, 40.000000, 396.000000, 4.000000
1003, 44.000000, 396.000000, 4.000000
1004, 48.000000, 396.000000, 4.000000
1005, 52.000000, 396.000000, 4.000000
1006, 56.000000, 396.000000, 4.000000
1007, 60.000000, 396.000000, 4.000000
1008, 64.000000, 396.000000, 4.000000
1009, 68.000000, 396.000000, 4.000000
1010, 72.000000, 396.000000, 4.000000
1011, 36.000000, 400.000000, 4.000000
1012, 40.000000, 400.000000, 4.000000
1013, 44.000000, 400.000000, 4.000000
1014, 48.000000, 400.000000, 4.000000
1015, 52.000000, 400.000000, 4.000000
1016, 56.000000, 400.000000, 4.000000
1017, 60.000000, 400.000000, 4.000000
1018, 64.000000, 400.000000, 4.000000
1019, 68.000000, 400.000000, 4.000000
1020, 72.000000, 400.000000, 4.000000
1021, 36.000000, 404.000000, 4.000000
1022, 40.000000, 404.000000, 4.000000
1023, 44.000000, 404.000000, 4.000000
1024, 48.000000, 404.000000, 4.000000
1025, 52.000000, 404.000000, 4.000000
1026, 56.000000, 404.000000, 4.000000
1027, 60.000000, 404.000000, 4.000000
1028, 64.000000, 404.000000, 4.000000
1029, 68.000000, 404.000000, 4.000000
1030, 72.000000, 404.000000, 4.000000
1031, 36.000000, 408.000000, 4.000000
1032, 40.000000, 408.000000, 4.000000
1033, 44.000000, 408.000000, 4.000000
1034, 48.000000, 408.000000, 4.000000
1035, 52.000000, 408.000000, 4.000000
1036, 56.000000, 408.000000, 4.000000
1037, 60.000000, 408.000000, 4.000000
1038, 64.000000, 408.000000, 4.000000
1039, 68.000000, 408.000000, 4.000000
1040, 72.000000, 408.000000, 4.000000
1041, 36.000000, 412.000000, 4.000000
1042, 40.000000, 412.000000, 4.000000
1043, 44.000000, 412.000000, 4.000000
1044, 48.000000, 412.000000, 4.000000
1045, 52.000000, 412.000000, 4.000000
1046, 56.000000, 412.000000, 4.000000
1047, 60.000000, 412.000000, 4.000000
1048, 64.000000, 412.000000, 4.000000
1049, 68.000000, 412.000000, 4.000000
1050, 72.000000, 412.000000, 4.000000
1051, 36.000000, 416.000000, 4.000000
1052, 40.000000, 416.000000, 4.000000
1053, 44.000000, 416.000000, 4.000000
1054, 48.000000, 416.000000, 4.000000
1055, 52.000000, 416.000000, 4.000000
1056, 56.000000, 416.000000, 4.000000
1057, 60.000000, 416.000000, 4.000000
1058, 64.000000, 416.000000, 4.000000
1059, 68.000000, 416.000000, 4.000000
1060, 72.000000, 416.000000, 4.000000
1061, 36.000000, 420.000000, 4.000000
1062, 40.000000, 420.000000, 4.000000
1063, 44.000000, 420.000000, 4.000000
1064, 48.000000, 420.000000, 4.000000
1065, 52.000000, 420.000000, 4.000000
1066, 56.000000, 420.000000, 4.000000
1067, 60.000000, 420.000000, 4.000000
1068, 64.000000, 420.000000, 4.000000
1069, 68.000000, 420.000000, 4.000000
1070, 72.000000, 420.000000, 4.000000
1071, 36.000000, 424.000000, 4.000000
1072, 40.000000, 424.000000, 4.000000
1073, 44.000000, 424.000000, 4.000000
1074, 48.000000, 424.000000, 4.000000
1075, 52.000000, 424.000000, 4.000000
1076, 56.000000, 424.000000, 4.000000
1077, 60.000000, 424.000000, 4.000000
1078, 64.000000, 424.000000, 4.000000
1079, 68.000000, 424.000000, 4.000000
1080, 72.000000, 424.000000, 4.000000
1081, 36.000000, 428.000000, 4.000000
1082, 40.000000, 428.000000, 4.000000
1083, 44.000000, 428.000000, 4.000000
1084, 48.000000, 428.000000, 4.000000
1085, 52.000000, 428.000000, 4.000000
1086, 56.000000, 428.000000, 4.000000
1087, 60.000000, 428.000000, 4.000000
1088, 64.000000, 428.000000, 4.000000
1089, 68.000000, 428.000000, 4.000000
1090, 72.000000, 428.000000, 4.000000
1091, 36.000000, 432.000000, 4.000000
1092, 40.000000, 432.000000, 4.000000
1093, 44.000000, 432.000000, 4.000000
1094, 48.000000, 432.000000, 4.000000
1095, 52.000000, 432.000000, 4.000000
1096, 56.000000, 432.000000, 4.000000
1097, 60.000000, 432.000000, 4.000000
1098, 64.000000, 432.000000, 4.000000
1099, 68.000000, 432.000000, 4.000000
1100, 72.000000, 432.000000, 4.000000
1101, 36.000000, 436.000000, 4.000000
1102, 40.000000, 436.000000, 4.000000
1103, 44.000000, 436.000000, 4.000000
1104, 48.000000, 436.000000, 4.000000
1105, 52.000000, 436.000000, 4.000000
1106, 56.000000, 436.000000, 4.000000
1107, 60.000000, 436.000000, 4.000000
1108, 64.000000, 436.000000, 4.000000
1109, 68.000000, 436.000000, 4.000000
1110, 72.000000, 436.000000, 4.000000
1111, 36.000000, 440.000000, 4.000000
1112, 40.000000, 440.000000, 4.000000
1113, 44.000000, 440.000000, 4.000000
1114, 48.000000, 440.000000, 4.000000
1115, 52.000000, 440.000000, 4.000000
1116, 56.000000, 440.000000, 4.000000
1117, 60.000000, 440.000000, 4.000000
1118, 64.000000, 440.000000, 4.000000
1119, 68.000000, 440.000000, 4.000000
1120, 72.000000, 440.000000, 4.000000
1121, 36.000000, 444.000000, 4.000000
1122, 40.000000, 444.000000, 4.000000
1123, 44.000000, 444.000000, 4.000000
1124, 48.000000, 444.000000, 4.000000
1125, 52.000000, 444.000000, 4.000000
1126, 56.000000, 444.000000, 4.000000
1127, 60.000000, 444.000000, 4.000000
1128, 64.000000, 444.000000, 4.000000
1129, 68.000000, 444.000000, 4.000000
1130, 72.000000, 444.000000, 4.000000
1131, 36.000000, 448.000000, 4.000000
1132, 40.000000, 448.000000, 4.000000
1133, 44.000000, 448.000000, 4.000000
1134, 48.000000, 448.000000, 4.000000
1135, 52.000000, 448.000000, 4.000000
1136, 56.000000, 448.000000, 4.000000
1137, 60.000000, 448.000000, 4.000000
1138, 64.000000, 448.000000, 4.000000
1139, 68.000000, 448.000000, 4.000000
1140, 72.000000, 448.000000, 4.000000
1141, 36.000000, 452.000000, 4.000000
1142, 40.000000, 452.000000, 4.000000
1143, 44.000000, 452.000000, 4.000000
1144, 48.000000, 452.000000, 4.000000
1145, 52.000000, 452.000000, 4.000000
1146, 56.000000, 452.000000, 4.000000
1147, 60.000000, 452.000000, 4.000000
1148, 64.000000, 452.000000, 4.000000
1149, 68.000000, 452.000000, 4.000000
1150, 72.000000, 452.000000, 4.000000
1151, 36.000000, 456.000000, 4.000000
1152, 40.000000, 456.000000, 4.000000
1153, 44.000000, 456.000000, 4.000000
1154, 48.000000, 456.000000, 4.000000
1155, 52.000000, 456.000000, 4.000000
1156, 56.000000, 456.000000, 4.000000
1157, 60.000000, 456.000000, 4.000000
1158, 64.000000, 456.000000, 4.000000
1159, 68.000000, 456.000000, 4.000000
1160, 72.000000, 456.000000, 4.000000
1161, 36.000000, 228.000000, 8.000000
1162, 40.000000, 228.000000, 8.000000
1163, 44.000000, 228.000000, 8.000000
1164, 48.000000, 228.000000, 8.000000
1165, 52.000000, 228.000000, 8.000000
1166, 56.000000, 228.000000, 8.000000
1167, 60.000000, 228.000000, 8.000000
1168, 64.000000, 228.000000, 8.000000
1169, 68.000000, 228.000000, 8.000000
1170, 72.000000, 228.000000, 8.000000
1171, 36.000000, 232.000000, 8.000000
1172, 40.000000, 232.000000, 8.000000
1173, 44.000000, 232.000000, 8.000000
1174, 48.000000, 232.000000, 8.000000
1175, 52.000000, 232.000000, 8.000000
1176, 56.000000, 232.000000, 8.000000
1177, 60.000000, 232.000000, 8.000000
1178, 64.000000, 232.000000, 8.000000
1179, 68.000000, 232.000000, 8.000000
1180, 72.000000, 232.000000, 8.000000
1181, 36.000000, 236.000000, 8.000000
1182, 40.000000, 236.000000, 8.000000
1183, 44.000000, 236.000000, 8.000000
1184, 48.000000, 236.000000, 8.000000
1185, 52.000000, 236.000000, 8.000000
1186, 56.000000, 236.000000, 8.000000
1187, 60.000000, 236.000000, 8.000000
1188, 64.000000, 236.000000, 8.000000
1189, 68.000000, 236.000000, 8.000000
1190, 72.000000, 236.000000, 8.000000
1191, 36.000000, 240.000000, 8.000000
1192, 40.000000, 240.000000, 8.000000
1193, 44.000000, 240.000000, 8.000000
1194, 48.000000, 240.000000, 8.000000
1195, 52.000000, 240.000000, 8.000000
1196, 56.000000, 240.000000, 8.000000
1197, 60.000000, 240.000000, 8.000000
1198, 64.000000, 240.000000, 8.000000
1199, 68.000000, 240.000000, 8.000000
1200, 72.000000, 240.000000, 8.000000
1201, 36.000000, 244.000000, 8.000000
1202, 40.000000, 244.000000, 8.000000
1203, 44.000000, 244.000000, 8.000000
1204, 48.000000, 244.000000, 8.000000
1205, 52.000000, 244.000000, 8.000000
1206, 56.000000, 244.000000, 8.000000
1207, 60.000000, 244.000000, 8.000000
1208, 64.000000, 244.000000, 8.000000
1209, 68.000000, 244.000000, 8.000000
1210, 72.000000, 244.000000, 8.000000
1211, 36.000000, 248.000000, 8.000000
1212, 40.000000, 248.000000, 8.000000
1213, 44.000000, 248.000000, 8.000000
1214, 48.000000, 248.000000, 8.000000
1215, 52.000000, 248.000000, 8.000000
1216, 56.000000, 248.000000, 8.000000
1217, 60.000000, 248.000000, 8.000000
1218, 64.000000, 248.000000, 8.000000
1219, 68.000000, 248.000000, 8.000000
1220, 72.000000, 248.000000, 8.000000
1221, 36.000000, 252.000000, 8.000000
1222, 40.000000, 252.000000, 8.000000
1223, 44.000000, 252.000000, 8.000000
1224, 48.000000, 252.000000, 8.000000
1225, 52.000000, 252.000000, 8.000000
1226, 56.000000, 252.000000, 8.000000
1227, 60.000000, 252.000000, 8.000000
1228, 64.000000, 252.000000, 8.000000
1229, 68.000000, 252.000000, 8.000000
1230, 72.000000, 252.000000, 8.000000
1231, 36.000000, 256.000000, 8.000000
1232, 40.000000, 256.000000, 8.000000
1233, 44.000000, 256.000000, 8.000000
1234, 48.000000, 256.000000, 8.000000
1235, 52.000000, 256.000000, 8.000000
1236, 56.000000, 256.000000, 8.000000
1237, 60.000000, 256.000000, 8.000000
1238, 64.000000, 256.000000, 8.000000
1239, 68.000000, 256.000000, 8.000000
1240, 72.000000, 256.000000, 8.000000
1241, 36.000000, 260.000000, 8.000000
1242, 40.000000, 260.000000, 8.000000
1243, 44.000000, 260.000000, 8.000000
1244, 48.000000, 260.000000, 8.000000
1245, 52.000000, 260.000000, 8.000000
1246, 56.000000, 260.000000, 8.000000
1247, 60.000000, 260.000000, 8.000000
1248, 64.000000, 260.000000, 8.000000
1249, 68.000000, 260.000000, 8.000000
1250, 72.000000, 260.000000, 8.000000
1251, 36.000000, 264.000000, 8.000000
1252, 40.000000, 264.000000, 8.000000
1253, 44.000000, 264.000000, 8.000000
1254, 48.000000, 264.000000, 8.000000
1255, 52.000000, 264.000000, 8.000000
1256, 56.000000, 264.000000, 8.000000
1257, 60.000000, 264.000000, 8.000000
1258, 64.000000, 264.000000, 8.000000
1259, 68.000000, 264.000000, 8.000000
1260, 72.000000, 264.000000, 8.000000
1261, 36.000000, 268.000000, 8.000000
1262, 40.000000, 268.000000, 8.000000
1263, 44.000000, 268.000000, 8.000000
1264, 48.000000, 268.000000, 8.000000
1265, 52.000000, 268.000000, 8.000000
1266, 56.000000, 268.000000, 8.000000
1267, 60.000000, 268.000000, 8.000000
1268, 64.000000, 268.000000, 8.000000
1269, 68.000000, 268.000000, 8.000000
1270, 72.000000, 268.000000, 8.000000
1271, 36.000000, 272.000000, 8.000000
1272, 40.000000, 272.000000, 8.000000
1273, 44.000000, 272.000000, 8.000000
1274, 48.000000, 272.000000, 8.000000
1275, 52.000000, 272.000000, 8.000000
1276, 56.000000, 272.000000, 8.000000
1277, 60.000000, 272.000000, 8.000000
1278, 64.000000, 272.000000, 8.000000
1279, 68.000000, 272.000000, 8.000000
1280, 72.000000, 272.000000, 8.000000
1281, 36.000000, 276.000000, 8.000000
1282, 40.000000, 276.000000, 8.000000
1283, 44.000000, 276.000000, 8.000000
1284, 48.000000, 276.000000, 8.000000
1285, 52.000000, 276.000000, 8.000000
1286, 56.000000, 276.000000, 8.000000
1287, 60.000000, 276.000000, 8.000000
1288, 64.000000, 276.000000, 8.000000
1289, 68.000000, 276.000000, 8.000000
1290, 72.000000, 276.000000, 8.000000
1291, 36.000000, 280.000000, 8.000000
1292, 40.000000, 280.000000, 8.000000
1293, 44.000000, 280.000000, 8.000000
1294, 48.000000, 280.000000, 8.000000
1295, 52.000000, 280.000000, 8.000000
1296, 56.000000, 280.000000, 8.000000
1297, 60.000000, 280.000000, 8.000000
1298, 64.000000, 280.000000, 8.000000
1299, 68.000000, 280.000000, 8.000000
1300, 72.000000, 280.000000, 8.000000
1301, 36.000000, 284.000000, 8.000000
1302, 40.000000, 284.000000, 8.000000
1303, 44.000000, 284.000000, 8.000000
1304, 48.000000, 284.000000, 8.000000
1305, 52.000000, 284.000000, 8.000000
1306, 56.000000, 284.000000, 8.000000
1307, 60.000000, 284.000000, 8.000000
1308, 64.000000, 284.000000, 8.000000
1309, 68.000000, 284.000000, 8.000000
1310, 72.000000, 284.000000, 8.000000
1311, 36.000000, 288.000000, 8.000000
1312, 40.000000, 288.000000, 8.000000
1313, 44.000000, 288.000000, 8.000000
1314, 48.000000, 288.000000, 8.000000
1315, 52.000000, 288.000000, 8.000000
1316, 56.000000, 288.000000, 8.000000
1317, 60.000000, 288.000000, 8.000000
1318, 64.000000, 288.000000, 8.000000
1319, 68.000000, 288.000000, 8.000000
1320, 72.000000, 288.000000, 8.000000
1321, 36.000000, 292.000000, 8.000000
1322, 40.000000, 292.000000, 8.000000
1323, 44.000000, 292.000000, 8.000000
1324, 48.000000, 292.000000, 8.000000
1325, 52.000000, 292.000000, 8.000000
1326, 56.000000, 292.000000, 8.000000
1327, 60.000000, 292.000000, 8.000000
1328, 64.000000, 292.000000, 8.000000
1329, 68.000000, 292.000000, 8.000000
1330, 72.000000, 292.000000, 8.000000
1331, 36.000000, 296.000000, 8.000000
1332, 40.000000, 296.000000, 8.000000
1333, 44.000000, 296.000000, 8.000000
1334, 48.000000, 296.000000, 8.000000
1335, 52.000000, 296.000000, 8.000000
1336, 56.000000, 296.000000, 8.000000
1337, 60.000000, 296.000000, 8.000000
1338, 64.000000, 296.000000, 8.000000
1339, 68.000000, 296.000000, 8.000000
1340, 72.000000, 296.000000, 8.000000
1341, 36.000000, 300.000000, 8.000000
1342, 40.000000, 300.000000, 8.000000
1343, 44.000000, 300.000000, 8.000000
1344, 48.000000, 300.000000, 8.000000
1345, 52.000000, 300.000000, 8.000000
1346, 56.000000, 300.000000, 8.000000
1347, 60.000000, 300.000000, 8.000000
1348, 64.000000, 300.000000, 8.000000
1349, 68.000000, 300.000000, 8.000000
1350, 72.000000, 300.000000, 8.000000
1351, 36.000000, 304.000000, 8.000000
1352, 40.000000, 304.000000, 8.000000
1353, 44.000000, 304.000000, 8.000000
1354, 48.000000, 304.000000, 8.000000
1355, 52.000000, 304.000000, 8.000000
1356, 56.000000, 304.000000, 8.000000
1357, 60.000000, 304.000000, 8.000000
1358, 64.000000, 304.000000, 8.000000
1359, 68.000000, 304.000000, 8.000000
1360, 72.000000, 304.000000, 8.000000
1361, 36.000000, 308.000000, 8.000000
1362, 40.000000, 308.000000, 8.000000
1363, 44.000000, 308.000000, 8.000000
1364, 48.000000, 308.000000, 8.000000
1365, 52.000000, 308.000000, 8.000000
1366, 56.000000, 308.000000, 8.000000
1367, 60.000000, 308.000000, 8.000000
1368, 64.000000, 308.000000, 8.000000
1369, 68.000000, 308.000000, 8.000000
1370, 72.000000, 308.000000, 8.000000
1371, 36.000000, 312.000000, 8.000000
1372, 40.000000, 312.000000, 8.000000
1373, 44.000000, 312.000000, 8.000000
1374, 48.000000, 312.000000, 8.000000
1375, 52.000000, 312.000000, 8.000000
1376, 56.000000, 312.000000, 8.000000
1377, 60.000000, 312.000000, 8.000000
1378, 64.000000, 312.000000, 8.000000
1379, 68.000000, 312.000000, 8.000000
1380, 72.000000, 312.000000, 8.000000
1381, 36.000000, 316.000000, 8.000000
1382, 40.000000, 316.000000, 8.000000
1383, 44.000000, 316.000000, 8.000000
1384, 48.000000, 316.000000, 8.000000
1385, 52.000000, 316.000000, 8.000000
1386, 56.000000, 316.000000, 8.000000
1387, 60.000000, 316.000000, 8.000000
1388, 64.000000, 316.000000, 8.000000
1389, 68.000000, 316.000000, 8.000000
1390, 72.000000, 316.000000, 8.000000
1391, 36.000000, 320.000000, 8.000000
1392, 40.000000, 320.000000, 8.000000
1393, 44.000000, 320.000000, 8.000000
1394, 48.000000, 320.000000, 8.000000
1395, 52.000000, 320.000000, 8.000000
1396, 56.000000, 320.000000, 8.000000
1397, 60.000000, 320.000000, 8.000000
1398, 64.000000, 320.000000, 8.000000
1399, 68.000000, 320.000000, 8.000000
1400, 72.000000, 320.000000, 8.000000
1401, 36.000000, 324.000000, 8.000000
1402, 40.000000, 324.000000, 8.000000
1403, 44.000000, 324.000000, 8.000000
1404, 48.000000, 324.000000, 8.000000
1405, 52.000000, 324.000000, 8.000000
1406, 56.000000, 324.000000, 8.000000
1407, 60.000000, 324.000000, 8.000000
1408, 64.000000, 324.000000, 8.000000
1409, 68.000000, 324.000000, 8.000000
1410, 72.000000, 324.000000, 8.000000
1411, 36.000000, 328.000000, 8.000000
1412, 40.000000, 328.000000, 8.000000
1413, 44.000000, 328.000000, 8.000000
1414, 48.000000, 328.000000, 8.000000
1415, 52.000000, 328.000000, 8.000000
1416, 56.000000, 328.000000, 8.000000
1417, 60.000000, 328.000000, 8.000000
1418, 64.000000, 328.000000, 8.000000
1419, 68.000000, 328.000000, 8.000000
1420, 72.000000, 328.000000, 8.000000
1421, 36.000000, 332.000000, 8.000000
1422, 40.000000, 332.000000, 8.000000
1423, 44.000000, 332.000000, 8.000000
1424, 48.000000, 332.000000, 8.000000
1425, 52.000000, 332.000000, 8.000000
1426, 56.000000, 332.000000, 8.000000
1427, 60.000000, 332.000000, 8.000000
1428, 64.000000, 332.000000, 8.000000
1429, 68.000000, 332.000000, 8.000000
1430, 72.000000, 332.000000, 8.000000
1431, 36.000000, 336.000000, 8.000000
1432, 40.000000, 336.000000, 8.000000
1433, 44.000000, 336.000000, 8.000000
1434, 48.000000, 336.000000, 8.000000
1435, 52.000000, 336.000000, 8.000000
1436, 56.000000, 336.000000, 8.000000
1437, 60.000000, 336.000000, 8.000000
1438, 64.000000, 336.000000, 8.000000
1439, 68.000000, 336.000000, 8.000000
1440, 72.000000, 336.000000, 8.000000
1441, 36.000000, 340.000000, 8.000000
1442, 40.000000, 340.000000, 8.000000
1443, 44.000000, 340.000000, 8.000000
1444, 48.000000, 340.000000, 8.000000
1445, 52.000000, 340.000000, 8.000000
1446, 56.000000, 340.000000, 8.000000
1447, 60.000000, 340.000000, 8.000000
1448, 64.000000, 340.000000, 8.000000
1449, 68.000000, 340.000000, 8.000000
1450, 72.000000, 340.000000, 8.000000
1451, 36.000000, 344.000000, 8.000000
1452, 40.000000, 344.000000, 8.000000
1453, 44.000000, 344.000000, 8.000000
1454, 48.000000, 344.000000, 8.000000
1455, 52.000000, 344.000000, 8.000000
1456, 56.000000, 344.000000, 8.000000
1457, 60.000000, 344.000000, 8.000000
1458, 64.000000, 344.000000, 8.000000
1459, 68.000000, 344.000000, 8.000000
1460, 72.000000, 344.000000, 8.000000
1461, 36.000000, 348.000000, 8.000000
1462, 40.000000, 348.000000, 8.000000
1463, 44.000000, 348.000000, 8.000000
1464, 48.000000, 348.000000, 8.000000
1465, 52.000000, 348.000000, 8.000000
1466, 56.000000, 348.000000, 8.000000
1467, 60.000000, 348.000000, 8.000000
1468, 64.000000, 348.000000, 8.000000
1469, 68.000000, 348.000000, 8.000000
1470, 72.000000, 348.000000, 8.000000
1471, 36.000000, 352.000000, 8.000000
1472, 40.000000, 352.000000, 8.000000
1473, 44.000000, 352.000000, 8.000000
1474, 48.000000, 352.000000, 8.000000
1475, 52.000000, 352.000000, 8.000000
1476, 56.000000, 352.000000, 8.000000
1477, 60.000000, 352.000000, 8.000000
1478, 64.000000, 352.000000, 8.000000
1479, 68.000000, 352.000000, 8.000000
1480, 72.000000, 352.000000, 8.000000
1481, 36.000000, 356.000000, 8.000000
1482, 40.000000, 356.000000, 8.000000
1483, 44.000000, 356.000000, 8.000000
1484, 48.000000, 356.000000, 8.000000
1485, 52.000000, 356.000000, 8.000000
1486, 56.000000, 356.000000, 8.000000
1487, 60.000000, 356.000000, 8.000000
1488, 64.000000, 356.000000, 8.000000
1489, 68.000000, 356.000000, 8.000000
1490, 72.000000, 356.000000, 8.000000
1491, 36.000000, 360.000000, 8.000000
1492, 40.000000, 360.000000, 8.000000
1493, 44.000000, 360.000000, 8.000000
1494, 48.000000, 360.000000, 8.000000
1495, 52.000000, 360.000000, 8.000000
1496, 56.000000, 360.000000, 8.000000
1497, 60.000000, 360.000000, 8.000000
1498, 64.000000, 360.000000, 8.000000
1499, 68.000000, 360.000000, 8.000000
1500, 72.000000, 360.000000, 8.000000
1501, 36.000000, 364.000000, 8.000000
1502, 40.000000, 364.000000, 8.000000
1503, 44.000000, 364.000000, 8.000000
1504, 48.000000, 364.000000, 8.000000
1505, 52.000000, 364.000000, 8.000000
1506, 56.000000, 364.000000, 8.000000
1507, 60.000000, 364.000000, 8.000000
1508, 64.000000, 364.000000, 8.000000
1509, 68.000000, 364.000000, 8.000000
1510, 72.000000, 364.000000, 8.000000
1511, 36.000000, 368.000000, 8.000000
1512, 40.000000, 368.000000, 8.000000
1513, 44.000000, 368.000000, 8.000000
1514, 48.000000, 368.000000, 8.000000
1515, 52.000000, 368.000000, 8.000000
1516, 56.000000, 368.000000, 8.000000
1517, 60.000000, 368.000000, 8.000000
1518, 64.000000, 368.000000, 8.000000
1519, 68.000000, 368.000000, 8.000000
1520, 72.000000, 368.000000, 8.000000
1521, 36.000000, 372.000000, 8.000000
1522, 40.000000, 372.000000, 8.000000
1523, 44.000000, 372.000000, 8.000000
1524, 48.000000, 372.000000, 8.000000
1525, 52.000000, 372.000000, 8.000000
1526, 56.000000, 372.000000, 8.000000
1527, 60.000000, 372.000000, 8.000000
1528, 64.000000, 372.000000, 8.000000
1529, 68.000000, 372.000000, 8.000000
1530, 72.000000, 372.000000, 8.000000
1531, 36.000000, 376.000000, 8.000000
1532, 40.000000, 376.000000, 8.000000
1533, 44.000000, 376.000000, 8.000000
1534, 48.000000, 376.000000, 8.000000
1535, 52.000000, 376.000000, 8.000000
1536, 56.000000, 376.000000, 8.000000
1537, 60.000000, 376.000000, 8.000000
1538, 64.000000, 376.000000, 8.000000
1539, 68.000000, 376.000000, 8.000000
1540, 72.000000, 376.000000, 8.000000
1541, 36.000000, 380.000000, 8.000000
1542, 40.000000, 380.000000, 8.000000
1543, 44.000000, 380.000000, 8.000000
1544, 48.000000, 380.000000, 8.000000
1545, 52.000000, 380.000000, 8.000000
1546, 56.000000, 380.000000, 8.000000
1547, 60.000000, 380.000000, 8.000000
1548, 64.000000, 380.000000, 8.000000
1549, 68.000000, 380.000000, 8.000000
1550, 72.000000, 380.000000, 8.000000
1551, 36.000000, 384.000000, 8.000000
1552, 40.000000, 384.000000, 8.000000
1553, 44.000000, 384.000000, 8.000000
1554, 48.000000, 384.000000, 8.000000
1555, 52.000000, 384.000000, 8.000000
1556, 56.000000, 384.000000, 8.000000
1557, 60.000000, 384.000000, 8.000000
1558, 64.000000, 384.000000, 8.000000
1559, 68.000000, 384.000000, 8.000000
1560, 72.000000, 384.000000, 8.000000
1561, 36.000000, 388.000000, 8.000000
1562, 40.000000, 388.000000, 8.000000
1563, 44.000000, 388.000000, 8.000000
1564, 48.000000, 388.000000, 8.000000
1565, 52.000000, 388.000000, 8.000000
1566, 56.000000, 388.000000, 8.000000
1567, 60.000000, 388.000000, 8.000000
1568, 64.000000, 388.000000, 8.000000
1569, 68.000000, 388.000000, 8.000000
1570, 72.000000, 388.000000, 8.000000
1571, 36.000000, 392.000000, 8.000000
1572, 40.000000, 392.000000, 8.000000
1573, 44.000000, 392.000000, 8.000000
1574, 48.000000, 392.000000, 8.000000
1575, 52.000000, 392.000000, 8.000000
1576, 56.000000, 392.000000, 8.000000
1577, 60.000000, 392.000000, 8.000000
1578, 64.000000, 392.000000, 8.000000
1579, 68.000000, 392.000000, 8.000000
1580, 72.000000, 392.000000, 8.000000
1581, 36.000000, 396.000000, 8.000000
1582, 40.000000, 396.000000, 8.000000
1583, 44.000000, 396.000000, 8.000000
1584, 48.000000, 396.000000, 8.000000
1585, 52.000000, 396.000000, 8.000000
1586, 56.000000, 396.000000, 8.000000
1587, 60.000000, 396.000000, 8.000000
1588, 64.000000, 396.000000, 8.000000
1589, 68.000000, 396.000000, 8.000000
1590, 72.000000, 396.000000, 8.000000
1591, 36.000000, 400.000000, 8.000000
1592, 40.000000, 400.000000, 8.000000
1593, 44.000000, 400.000000, 8.000000
1594, 48.000000, 400.000000, 8.000000
1595, 52.000000, 400.000000, 8.000000
1596, 56.000000, 400.000000, 8.000000
1597, 60.000000, 400.000000, 8.000000
1598, 64.000000, 400.000000, 8.000000
1599, 68.000000, 400.000000, 8.000000
1600, 72.000000, 400.000000, 8.000000
1601, 36.000000, 404.000000, 8.000000
1602, 40.000000, 404.000000, 8.000000
1603, 44.000000, 404.000000, 8.000000
1604, 48.000000, 404.000000, 8.000000
1605, 52.000000, 404.000000, 8.000000
1606, 56.000000, 404.000000, 8.000000
1607, 60.000000, 404.000000, 8.000000
1608, 64.000000, 404.000000, 8.000000
1609, 68.000000, 404.000000, 8.000000
1610, 72.000000, 404.000000, 8.000000
1611, 36.000000, 408.000000, 8.000000
1612, 40.000000, 408.000000, 8.000000
1613, 44.000000, 408.000000, 8.000000
1614, 48.000000, 408.000000, 8.000000
1615, 52.000000, 408.000000, 8.000000
1616, 56.000000, 408.000000, 8.000000
1617, 60.000000, 408.000000, 8.000000
1618, 64.000000, 408.000000, 8.000000
1619, 68.000000, 408.000000, 8.000000
1620, 72.000000, 408.000000, 8.000000
1621, 36.000000, 412.000000, 8.000000
1622, 40.000000, 412.000000, 8.000000
1623, 44.000000, 412.000000, 8.000000
1624, 48.000000, 412.000000, 8.000000
1625, 52.000000, 412.000000, 8.000000
1626, 56.000000, 412.000000, 8.000000
1627, 60.000000, 412.000000, 8.000000
1628, 64.000000, 412.000000, 8.000000
1629, 68.000000, 412.000000, 8.000000
1630, 72.000000, 412.000000, 8.000000
1631, 36.000000, 416.000000, 8.000000
1632, 40.000000, 416.000000, 8.000000
1633, 44.000000, 416.000000, 8.000000
1634, 48.000000, 416.000000, 8.000000
1635, 52.000000, 416.000000, 8.000000
1636, 56.000000, 416.000000, 8.000000
1637, 60.000000, 416.000000, 8.000000
1638, 64.000000, 416.000000, 8.000000
1639, 68.000000, 416.000000, 8.000000
1640, 72.000000, 416.000000, 8.000000
1641, 36.000000, 420.000000, 8.000000
1642, 40.000000, 420.000000, 8.000000
1643, 44.000000, 420.000000, 8.000000
1644, 48.000000, 420.000000, 8.000000
1645, 52.000000, 420.000000, 8.000000
1646, 56.000000, 420.000000, 8.000000
1647, 60.000000, 420.000000, 8.000000
1648, 64.000000, 420.000000, 8.000000
1649, 68.000000, 420.000000, 8.000000
1650, 72.000000, 420.000000, 8.000000
1651, 36.000000, 424.000000, 8.000000
1652, 40.000000, 424.000000, 8.000000
1653, 44.000000, 424.000000, 8.000000
1654, 48.000000, 424.000000, 8.000000
1655, 52.000000, 424.000000, 8.000000
1656, 56.000000, 424.000000, 8.000000
1657, 60.000000, 424.000000, 8.000000
1658, 64.000000, 424.000000, 8.000000
1659, 68.000000, 424.000000, 8.000000
1660, 72.000000, 424.000000, 8.000000
1661, 36.000000, 428.000000, 8.000000
1662, 40.000000, 428.000000, 8.000000
1663, 44.000000, 428.000000, 8.000000
1664, 48.000000, 428.000000, 8.000000
1665, 52.000000, 428.000000, 8.000000
1666, 56.000000, 428.000000, 8.000000
1667, 60.000000, 428.000000, 8.000000
1668, 64.000000, 428.000000, 8.000000
1669, 68.000000, 428.000000, 8.000000
1670, 72.000000, 428.000000, 8.000000
1671, 36.000000, 432.000000, 8.000000
1672, 40.000000, 432.000000, 8.000000
1673, 44.000000, 432.000000, 8.000000
1674, 48.000000, 432.000000, 8.000000
1675, 52.000000, 432.000000, 8.000000
1676, 56.000000, 432.000000, 8.000000
1677, 60.000000, 432.000000, 8.000000
1678, 64.000000, 432.000000, 8.000000
1679, 68.000000, 432.000000, 8.000000
1680, 72.000000, 432.000000, 8.000000
1681, 36.000000, 436.000000, 8.000000
1682, 40.000000, 436.000000, 8.000000
1683, 44.000000, 436.000000, 8.000000
1684, 48.000000, 436.000000, 8.000000
1685, 52.000000, 436.000000, 8.000000
1686, 56.000000, 436.000000, 8.000000
1687, 60.000000, 436.000000, 8.000000
1688, 64.000000, 436.000000, 8.000000
1689, 68.000000, 436.000000, 8.000000
1690, 72.000000, 436.000000, 8.000000
1691, 36.000000, 440.000000, 8.000000
1692, 40.000000, 440.000000, 8.000000
1693, 44.000000, 440.000000, 8.000000
1694, 48.000000, 440.000000, 8.000000
1695, 52.000000, 440.000000, 8.000000
1696, 56.000000, 440.000000, 8.000000
1697, 60.000000, 440.000000, 8.000000
1698, 64.000000, 440.000000, 8.000000
1699, 68.000000, 440.000000, 8.000000
1700, 72.000000, 440.000000, 8.000000
1701, 36.000000, 444.000000, 8.000000
1702, 40.000000, 444.000000, 8.000000
1703, 44.000000, 444.000000, 8.000000
1704, 48.000000, 444.000000, 8.000000
1705, 52.000000, 444.000000, 8.000000
1706, 56.000000, 444.000000, 8.000000
1707, 60.000000, 444.000000, 8.000000
1708, 64.000000, 444.000000, 8.000000
1709, 68.000000, 444.000000, 8.000000
1710, 72.000000, 444.000000, 8.000000
1711, 36.000000, 448.000000, 8.000000
1712, 40.000000, 448.000000, 8.000000
1713, 44.000000, 448.000000, 8.000000
1714, 48.000000, 448.000000, 8.000000
1715, 52.000000, 448.000000, 8.000000
1716, 56.000000, 448.000000, 8.000000
1717, 60.000000, 448.000000, 8.000000
1718, 64.000000, 448.000000, 8.000000
1719, 68.000000, 448.000000, 8.000000
1720, 72.000000, 448.000000, 8.000000
1721, 36.000000, 452.000000, 8.000000
1722, 40.000000, 452.000000, 8.000000
1723, 44.000000, 452.000000, 8.000000
1724, 48.000000, 452.000000, 8.000000
1725, 52.000000, 452.000000, 8.000000
1726, 56.000000, 452.000000, 8.000000
1727, 60.000000, 452.000000, 8.000000
1728, 64.000000, 452.000000, 8.000000
1729, 68.000000, 452.000000, 8.000000
1730, 72.000000, 452.000000, 8.000000
1731, 36.000000, 456.000000, 8.000000
1732, 40.000000, 456.000000, 8.000000
1733, 44.000000, 456.000000, 8.000000
1734, 48.000000, 456.000000, 8.000000
1735, 52.000000, 456.000000, 8.000000
1736, 56.000000, 456.000000, 8.000000
1737, 60.000000, 456.000000, 8.000000
1738, 64.000000, 456.000000, 8.000000
1739, 68.000000, 456.000000, 8.000000
1740, 72.000000, 456.000000, 8.000000
1741, 36.000000, 228.000000, 12.000000
1742, 40.000000, 228.000000, 12.000000
1743, 44.000000, 228.000000, 12.000000
1744, 48.000000, 228.000000, 12.000000
1745, 52.000000, 228.000000, 12.000000
1746, 56.000000, 228.000000, 12.000000
1747, 60.000000, 228.000000, 12.000000
1748, 64.000000, 228.000000, 12.000000
1749, 68.000000, 228.000000, 12.000000
1750, 72.000000, 228.000000, 12.000000
1751, 36.000000, 232.000000, 12.000000
1752, 40.000000, 232.000000, 12.000000
1753, 44.000000, 232.000000, 12.000000
1754, 48.000000, 232.000000, 12.000000
1755, 52.000000, 232.000000, 12.000000
1756, 56.000000, 232.000000, 12.000000
1757, 60.000000, 232.000000, 12.000000
1758, 64.000000, 232.000000, 12.000000
1759, 68.000000, 232.000000, 12.000000
1760, 72.000000, 232.000000, 12.000000
1761, 36.000000, 236.000000, 12.000000
1762, 40.000000, 236.000000, 12.000000
1763, 44.000000, 236.000000, 12.000000
1764, 48.000000, 236.000000, 12.000000
1765, 52.000000, 236.000000, 12.000000
1766, 56.000000, 236.000000, 12.000000
1767, 60.000000, 236.000000, 12.000000
1768, 64.000000, 236.000000, 12.000000
1769, 68.000000, 236.000000, 12.000000
1770, 72.000000, 236.000000, 12.000000
1771, 36.000000, 240.000000, 12.000000
1772, 40.000000, 240.000000, 12.000000
1773, 44.000000, 240.000000, 12.000000
1774, 48.000000, 240.000000, 12.000000
1775, 52.000000, 240.000000, 12.000000
1776, 56.000000, 240.000000, 12.000000
1777, 60.000000, 240.000000, 12.000000
1778, 64.000000, 240.000000, 12.000000
1779, 68.000000, 240.000000, 12.000000
1780, 72.000000, 240.000000, 12.000000
1781, 36.000000, 244.000000, 12.000000
1782, 40.000000, 244.000000, 12.000000
1783, 44.000000, 244.000000, 12.000000
1784, 48.000000, 244.000000, 12.000000
1785, 52.000000, 244.000000, 12.000000
1786, 56.000000, 244.000000, 12.000000
1787, 60.000000, 244.000000, 12.000000
1788, 64.000000, 244.000000, 12.000000
1789, 68.000000, 244.000000, 12.000000
1790, 72.000000, 244.000000, 12.000000
1791, 36.000000, 248.000000, 12.000000
1792, 40.000000, 248.000000, 12.000000
1793, 44.000000, 248.000000, 12.000000
1794, 48.000000, 248.000000, 12.000000
1795, 52.000000, 248.000000, 12.000000
1796, 56.000000, 248.000000, 12.000000
1797, 60.000000, 248.000000, 12.000000
1798, 64.000000, 248.000000, 12.000000
1799, 68.000000, 248.000000, 12.000000
1800, 72.000000, 248.000000, 12.000000
1801, 36.000000, 252.000000, 12.000000
1802, 40.000000, 252.000000, 12.000000
1803, 44.000000, 252.000000, 12.000000
1804, 48.000000, 252.000000, 12.000000
1805, 52.000000, 252.000000, 12.000000
1806, 56.000000, 252.000000, 12.000000
1807, 60.000000, 252.000000, 12.000000
1808, 64.000000, 252.000000, 12.000000
1809, 68.000000, 252.000000, 12.000000
1810, 72.000000, 252.000000, 12.000000
1811, 36.000000, 256.000000, 12.000000
1812, 40.000000, 256.000000, 12.000000
1813, 44.000000, 256.000000, 12.000000
1814, 48.000000, 256.000000, 12.000000
1815, 52.000000, 256.000000, 12.000000
1816, 56.000000, 256.000000, 12.000000
1817, 60.000000, 256.000000, 12.000000
1818, 64.000000, 256.000000, 12.000000
1819, 68.000000, 256.000000, 12.000000
1820, 72.000000, 256.000000, 12.000000
1821, 36.000000, 260.000000, 12.000000
1822, 40.000000, 260.000000, 12.000000
1823, 44.000000, 260.000000, 12.000000
1824, 48.000000, 260.000000, 12.000000
1825, 52.000000, 260.000000, 12.000000
1826, 56.000000, 260.000000, 12.000000
1827, 60.000000, 260.000000, 12.000000
1828, 64.000000, 260.000000, 12.000000
1829, 68.000000, 260.000000, 12.000000
1830, 72.000000, 260.000000, 12.000000
1831, 36.000000, 264.000000, 12.000000
1832, 40.000000, 264.000000, 12.000000
1833, 44.000000, 264.000000, 12.000000
1834, 48.000000, 264.000000, 12.000000
1835, 52.000000, 264.000000, 12.000000
1836, 56.000000, 264.000000, 12.000000
1837, 60.000000, 264.000000, 12.000000
1838, 64.000000, 264.000000, 12.000000
1839, 68.000000, 264.000000, 12.000000
1840, 72.000000, 264.000000, 12.000000
1841, 36.000000, 268.000000, 12.000000
1842, 40.000000, 268.000000, 12.000000
1843, 44.000000, 268.000000, 12.000000
1844, 48.000000, 268.000000, 12.000000
1845, 52.000000, 268.000000, 12.000000
1846, 56.000000, 268.000000, 12.000000
1847, 60.000000, 268.000000, 12.000000
1848, 64.000000, 268.000000, 12.000000
1849, 68.000000, 268.000000, 12.000000
1850, 72.000000, 268.000000, 12.000000
1851, 36.000000, 272.000000, 12.000000
1852, 40.000000, 272.000000, 12.000000
1853, 44.000000, 272.000000, 12.000000
1854, 48.000000, 272.000000, 12.000000
1855, 52.000000, 272.000000, 12.000000
1856, 56.000000, 272.000000, 12.000000
1857, 60.000000, 272.000000, 12.000000
1858, 64.000000, 272.000000, 12.000000
1859, 68.000000, 272.000000, 12.000000
1860, 72.000000, 272.000000, 12.000000
1861, 36.000000, 276.000000, 12.000000
1862, 40.000000, 276.000000, 12.000000
1863, 44.000000, 276.000000, 12.000000
1864, 48.000000, 276.000000, 12.000000
1865, 52.000000, 276.000000, 12.000000
1866, 56.000000, 276.000000, 12.000000
1867, 60.000000, 276.000000, 12.000000
1868, 64.000000, 276.000000, 12.000000
1869, 68.000000, 276.000000, 12.000000
1870, 72.000000, 276.000000, 12.000000
1871, 36.000000, 280.000000, 12.000000
1872, 40.000000, 280.000000, 12.000000
1873, 44.000000, 280.000000, 12.000000
1874, 48.000000, 280.000000, 12.000000
1875, 52.000000, 280.000000, 12.000000
1876, 56.000000, 280.000000, 12.000000
1877, 60.000000, 280.000000, 12.000000
1878, 64.000000, 280.000000, 12.000000
1879, 68.000000, 280.000000, 12.000000
1880, 72.000000, 280.000000, 12.000000
1881, 36.000000, 284.000000, 12.000000
1882, 40.000000, 284.000000, 12.000000
1883, 44.000000, 284.000000, 12.000000
1884, 48.000000, 284.000000, 12.000000
1885, 52.000000, 284.000000, 12.000000
1886, 56.000000, 284.000000, 12.000000
1887, 60.000000, 284.000000, 12.000000
1888, 64.000000, 284.000000, 12.000000
1889, 68.000000, 284.000000, 12.000000
1890, 72.000000, 284.000000, 12.000000
1891, 36.000000, 288.000000, 12.000000
1892, 40.000000, 288.000000, 12.000000
1893, 44.000000, 288.000000, 12.000000
1894, 48.000000, 288.000000, 12.000000
1895, 52.000000, 288.000000, 12.000000
1896, 56.000000, 288.000000, 12.000000
1897, 60.000000, 288.000000, 12.000000
1898, 64.000000, 288.000000, 12.000000
1899, 68.000000, 288.000000, 12.000000
1900, 72.000000, 288.000000, 12.000000
1901, 36.000000, 292.000000, 12.000000
1902, 40.000000, 292.000000, 12.000000
1903, 44.000000, 292.000000, 12.000000
1904, 48.000000, 292.000000, 12.000000
1905, 52.000000, 292.000000, 12.000000
1906, 56.000000, 292.000000, 12.000000
1907, 60.000000, 292.000000, 12.000000
1908, 64.000000, 292.000000, 12.000000
1909, 68.000000, 292.000000, 12.000000
1910, 72.000000, 292.000000, 12.000000
1911, 36.000000, 296.000000, 12.000000
1912, 40.000000, 296.000000, 12.000000
1913, 44.000000, 296.000000, 12.000000
1914, 48.000000, 296.000000, 12.000000
1915, 52.000000, 296.000000, 12.000000
1916, 56.000000, 296.000000, 12.000000
1917, 60.000000, 296.000000, 12.000000
1918, 64.000000, 296.000000, 12.000000
1919, 68.000000, 296.000000, 12.000000
1920, 72.000000, 296.000000, 12.000000
1921, 36.000000, 300.000000, 12.000000
1922, 40.000000, 300.000000, 12.000000
1923, 44.000000, 300.000000, 12.000000
1924, 48.000000, 300.000000, 12.000000
1925, 52.000000, 300.000000, 12.000000
1926, 56.000000, 300.000000, 12.000000
1927, 60.000000, 300.000000, 12.000000
1928, 64.000000, 300.000000, 12.000000
1929, 68.000000, 300.000000, 12.000000
1930, 72.000000, 300.000000, 12.000000
1931, 36.000000, 304.000000, 12.000000
1932, 40.000000, 304.000000, 12.000000
1933, 44.000000, 304.000000, 12.000000
1934, 48.000000, 304.000000, 12.000000
1935, 52.000000, 304.000000, 12.000000
1936, 56.000000, 304.000000, 12.000000
1937, 60.000000, 304.000000, 12.000000
1938, 64.000000, 304.000000, 12.000000
1939, 68.000000, 304.000000, 12.000000
1940, 72.000000, 304.000000, 12.000000
1941, 36.000000, 308.000000, 12.000000
1942, 40.000000, 308.000000, 12.000000
1943, 44.000000, 308.000000, 12.000000
1944, 48.000000, 308.000000, 12.000000
1945, 52.000000, 308.000000, 12.000000
1946, 56.000000, 308.000000, 12.000000
1947, 60.000000, 308.000000, 12.000000
1948, 64.000000, 308.000000, 12.000000
1949, 68.000000, 308.000000, 12.000000
1950, 72.000000, 308.000000, 12.000000
1951, 36.000000, 312.000000, 12.000000
1952, 40.000000, 312.000000, 12.000000
1953, 44.000000, 312.000000, 12.000000
1954, 48.000000, 312.000000, 12.000000
1955, 52.000000, 312.000000, 12.000000
1956, 56.000000, 312.000000, 12.000000
1957, 60.000000, 312.000000, 12.000000
1958, 64.000000, 312.000000, 12.000000
1959, 68.000000, 312.000000, 12.000000
1960, 72.000000, 312.000000, 12.000000
1961, 36.000000, 316.000000, 12.000000
1962, 40.000000, 316.000000, 12.000000
1963, 44.000000, 316.000000, 12.000000
1964, 48.000000, 316.000000, 12.000000
1965, 52.000000, 316.000000, 12.000000
1966, 56.000000, 316.000000, 12.000000
1967, 60.000000, 316.000000, 12.000000
1968, 64.000000, 316.000000, 12.000000
1969, 68.000000, 316.000000, 12.000000
1970, 72.000000, 316.000000, 12.000000
1971, 36.000000, 320.000000, 12.000000
1972, 40.000000, 320.000000, 12.000000
1973, 44.000000, 320.000000, 12.000000
1974, 48.000000, 320.000000, 12.000000
1975, 52.000000, 320.000000, 12.000000
1976, 56.000000, 320.000000, 12.000000
1977, 60.000000, 320.000000, 12.000000
1978, 64.000000, 320.000000, 12.000000
1979, 68.000000, 320.000000, 12.000000
1980, 72.000000, 320.000000, 12.000000
1981, 36.000000, 324.000000, 12.000000
1982, 40.000000, 324.000000, 12.000000
1983, 44.000000, 324.000000, 12.000000
1984, 48.000000, 324.000000, 12.000000
1985, 52.000000, 324.000000, 12.000000
1986, 56.000000, 324.000000, 12.000000
1987, 60.000000, 324.000000, 12.000000
1988, 64.000000, 324.000000, 12.000000
1989, 68.000000, 324.000000, 12.000000
1990, 72.000000, 324.000000, 12.000000
1991, 36.000000, 328.000000, 12.000000
1992, 40.000000, 328.000000, 12.000000
1993, 44.000000, 328.000000, 12.000000
1994, 48.000000, 328.000000, 12.000000
1995, 52.000000, 328.000000, 12.000000
1996, 56.000000, 328.000000, 12.000000
1997, 60.000000, 328.000000, 12.000000
1998, 64.000000, 328.000000, 12.000000
1999, 68.000000, 328.000000, 12.000000
2000, 72.000000, 328.000000, 12.000000
2001, 36.000000, 332.000000, 12.000000
2002, 40.000000, 332.000000, 12.000000
2003, 44.000000, 332.000000, 12.000000
2004, 48.000000, 332.000000, 12.000000
2005, 52.000000, 332.000000, 12.000000
2006, 56.000000, 332.000000, 12.000000
2007, 60.000000, 332.000000, 12.000000
2008, 64.000000, 332.000000, 12.000000
2009, 68.000000, 332.000000, 12.000000
2010, 72.000000, 332.000000, 12.000000
2011, 36.000000, 336.000000, 12.000000
2012, 40.000000, 336.000000, 12.000000
2013, 44.000000, 336.000000, 12.000000
2014, 48.000000, 336.000000, 12.000000
2015, 52.000000, 336.000000, 12.000000
2016, 56.000000, 336.000000, 12.000000
2017, 60.000000, 336.000000, 12.000000
2018, 64.000000, 336.000000, 12.000000
2019, 68.000000, 336.000000, 12.000000
2020, 72.000000, 336.000000, 12.000000
2021, 36.000000, 340.000000, 12.000000
2022, 40.000000, 340.000000, 12.000000
2023, 44.000000, 340.000000, 12.000000
2024, 48.000000, 340.000000, 12.000000
2025, 52.000000, 340.000000, 12.000000
2026, 56.000000, 340.000000, 12.000000
2027, 60.000000, 340.000000, 12.000000
2028, 64.000000, 340.000000, 12.000000
2029, 68.000000, 340.000000, 12.000000
2030, 72.000000, 340.000000, 12.000000
2031, 36.000000, 344.000000, 12.000000
2032, 40.000000, 344.000000, 12.000000
2033, 44.000000, 344.000000, 12.000000
2034, 48.000000, 344.000000, 12.000000
2035, 52.000000, 344.000000, 12.000000
2036, 56.000000, 344.000000, 12.000000
2037, 60.000000, 344.000000, 12.000000
2038, 64.000000, 344.000000, 12.000000
2039, 68.000000, 344.000000, 12.000000
2040, 72.000000, 344.000000, 12.000000
2041, 36.000000, 348.000000, 12.000000
2042, 40.000000, 348.000000, 12.000000
2043, 44.000000, 348.000000, 12.000000
2044, 48.000000, 348.000000, 12.000000
2045, 52.000000, 348.000000, 12.000000
2046, 56.000000, 348.000000, 12.000000
2047, 60.000000, 348.000000, 12.000000
2048, 64.000000, 348.000000, 12.000000
2049, 68.000000, 348.000000, 12.000000
2050, 72.000000, 348.000000, 12.000000
2051, 36.000000, 352.000000, 12.000000
2052, 40.000000, 352.000000, 12.000000
2053, 44.000000, 352.000000, 12.000000
2054, 48.000000, 352.000000, 12.000000
2055, 52.000000, 352.000000, 12.000000
2056, 56.000000, 352.000000, 12.000000
2057, 60.000000, 352.000000, 12.000000
2058, 64.000000, 352.000000, 12.000000
2059, 68.000000, 352.000000, 12.000000
2060, 72.000000, 352.000000, 12.000000
2061, 36.000000, 356.000000, 12.000000
2062, 40.000000, 356.000000, 12.000000
2063, 44.000000, 356.000000, 12.000000
2064, 48.000000, 356.000000, 12.000000
2065, 52.000000, 356.000000, 12.000000
2066, 56.000000, 356.000000, 12.000000
2067, 60.000000, 356.000000, 12.000000
2068, 64.000000, 356.000000, 12.000000
2069, 68.000000, 356.000000, 12.000000
2070, 72.000000, 356.000000, 12.000000
2071, 36.000000, 360.000000, 12.000000
2072, 40.000000, 360.000000, 12.000000
2073, 44.000000, 360.000000, 12.000000
2074, 48.000000, 360.000000, 12.000000
2075, 52.000000, 360.000000, 12.000000
2076, 56.000000, 360.000000, 12.000000
2077, 60.000000, 360.000000, 12.000000
2078, 64.000000, 360.000000, 12.000000
2079, 68.000000, 360.000000, 12.000000
2080, 72.000000, 360.000000, 12.000000
2081, 36.000000, 364.000000, 12.000000
2082, 40.000000, 364.000000, 12.000000
2083, 44.000000, 364.000000, 12.000000
2084, 48.000000, 364.000000, 12.000000
2085, 52.000000, 364.000000, 12.000000
2086, 56.000000, 364.000000, 12.000000
2087, 60.000000, 364.000000, 12.000000
2088, 64.000000, 364.000000, 12.000000
2089, 68.000000, 364.000000, 12.000000
2090, 72.000000, 364.000000, 12.000000
2091, 36.000000, 368.000000, 12.000000
2092, 40.000000, 368.000000, 12.000000
2093, 44.000000, 368.000000, 12.000000
2094, 48.000000, 368.000000, 12.000000
2095, 52.000000, 368.000000, 12.000000
2096, 56.000000, 368.000000, 12.000000
2097, 60.000000, 368.000000, 12.000000
2098, 64.000000, 368.000000, 12.000000
2099, 68.000000, 368.000000, 12.000000
2100, 72.000000, 368.000000, 12.000000
2101, 36.000000, 372.000000, 12.000000
2102, 40.000000, 372.000000, 12.000000
2103, 44.000000, 372.000000, 12.000000
2104, 48.000000, 372.000000, 12.000000
2105, 52.000000, 372.000000, 12.000000
2106, 56.000000, 372.000000, 12.000000
2107, 60.000000, 372.000000, 12.000000
2108, 64.000000, 372.000000, 12.000000
2109, 68.000000, 372.000000, 12.000000
2110, 72.000000, 372.000000, 12.000000
2111, 36.000000, 376.000000, 12.000000
2112, 40.000000, 376.000000, 12.000000
2113, 44.000000, 376.000000, 12.000000
2114, 48.000000, 376.000000, 12.000000
2115, 52.000000, 376.000000, 12.000000
2116, 56.000000, 376.000000, 12.000000
2117, 60.000000, 376.000000, 12.000000
2118, 64.000000, 376.000000, 12.000000
2119, 68.000000, 376.000000, 12.000000
2120, 72.000000, 376.000000, 12.000000
2121, 36.000000, 380.000000, 12.000000
2122, 40.000000, 380.000000, 12.000000
2123, 44.000000, 380.000000, 12.000000
2124, 48.000000, 380.000000, 12.000000
2125, 52.000000, 380.000000, 12.000000
2126, 56.000000, 380.000000, 12.000000
2127, 60.000000, 380.000000, 12.000000
2128, 64.000000, 380.000000, 12.000000
2129, 68.000000, 380.000000, 12.000000
2130, 72.000000, 380.000000, 12.000000
2131, 36.000000, 384.000000, 12.000000
2132, 40.000000, 384.000000, 12.000000
2133, 44.000000, 384.000000, 12.000000
2134, 48.000000, 384.000000, 12.000000
2135, 52.000000, 384.000000, 12.000000
2136, 56.000000, 384.000000, 12.000000
2137, 60.000000, 384.000000, 12.000000
2138, 64.000000, 384.000000, 12.000000
2139, 68.000000, 384.000000, 12.000000
2140, 72.000000, 384.000000, 12.000000
2141, 36.000000, 388.000000, 12.000000
2142, 40.000000, 388.000000, 12.000000
2143, 44.000000, 388.000000, 12.000000
2144, 48.000000, 388.000000, 12.000000
2145, 52.000000, 388.000000, 12.000000
2146, 56.000000, 388.000000, 12.000000
2147, 60.000000, 388.000000, 12.000000
2148, 64.000000, 388.000000, 12.000000
2149, 68.000000, 388.000000, 12.000000
2150, 72.000000, 388.000000, 12.000000
2151, 36.000000, 392.000000, 12.000000
2152, 40.000000, 392.000000, 12.000000
2153, 44.000000, 392.000000, 12.000000
2154, 48.000000, 392.000000, 12.000000
2155, 52.000000, 392.000000, 12.000000
2156, 56.000000, 392.000000, 12.000000
2157, 60.000000, 392.000000, 12.000000
2158, 64.000000, 392.000000, 12.000000
2159, 68.000000, 392.000000, 12.000000
2160, 72.000000, 392.000000, 12.000000
2161, 36.000000, 396.000000, 12.000000
2162, 40.000000, 396.000000, 12.000000
2163, 44.000000, 396.000000, 12.000000
2164, 48.000000, 396.000000, 12.000000
2165, 52.000000, 396.000000, 12.000000
2166, 56.000000, 396.000000, 12.000000
2167, 60.000000, 396.000000, 12.000000
2168, 64.000000, 396.000000, 12.000000
2169, 68.000000, 396.000000, 12.000000
2170, 72.000000, 396.000000, 12.000000
2171, 36.000000, 400.000000, 12.000000
2172, 40.000000, 400.000000, 12.000000
2173, 44.000000, 400.000000, 12.000000
2174, 48.000000, 400.000000, 12.000000
2175, 52.000000, 400.000000, 12.000000
2176, 56.000000, 400.000000, 12.000000
2177, 60.000000, 400.000000, 12.000000
2178, 64.000000, 400.000000, 12.000000
2179, 68.000000, 400.000000, 12.000000
2180, 72.000000, 400.000000, 12.000000
2181, 36.000000, 404.000000, 12.000000
2182, 40.000000, 404.000000, 12.000000
2183, 44.000000, 404.000000, 12.000000
2184, 48.000000, 404.000000, 12.000000
2185, 52.000000, 404.000000, 12.000000
2186, 56.000000, 404.000000, 12.000000
2187, 60.000000, 404.000000, 12.000000
2188, 64.000000, 404.000000, 12.000000
2189, 68.000000, 404.000000, 12.000000
2190, 72.000000, 404.000000, 12.000000
2191, 36.000000, 408.000000, 12.000000
2192, 40.000000, 408.000000, 12.000000
2193, 44.000000, 408.000000, 12.000000
2194, 48.000000, 408.000000, 12.000000
2195, 52.000000, 408.000000, 12.000000
2196, 56.000000, 408.000000, 12.000000
2197, 60.000000, 408.000000, 12.000000
2198, 64.000000, 408.000000, 12.000000
2199, 68.000000, 408.000000, 12.000000
2200, 72.000000, 408.000000, 12.000000
2201, 36.000000, 412.000000, 12.000000
2202, 40.000000, 412.000000, 12.000000
2203, 44.000000, 412.000000, 12.000000
2204, 48.000000, 412.000000, 12.000000
2205, 52.000000, 412.000000, 12.000000
2206, 56.000000, 412.000000, 12.000000
2207, 60.000000, 412.000000, 12.000000
2208, 64.000000, 412.000000, 12.000000
2209, 68.000000, 412.000000, 12.000000
2210, 72.000000, 412.000000, 12.000000
2211, 36.000000, 416.000000, 12.000000
2212, 40.000000, 416.000000, 12.000000
2213, 44.000000, 416.000000, 12.000000
2214, 48.000000, 416.000000, 12.000000
2215, 52.000000, 416.000000, 12.000000
2216, 56.000000, 416.000000, 12.000000
2217, 60.000000, 416.000000, 12.000000
2218, 64.000000, 416.000000, 12.000000
2219, 68.000000, 416.000000, 12.000000
2220, 72.000000, 416.000000, 12.000000
2221, 36.000000, 420.000000, 12.000000
2222, 40.000000, 420.000000, 12.000000
2223, 44.000000, 420.000000, 12.000000
2224, 48.000000, 420.000000, 12.000000
2225, 52.000000, 420.000000, 12.000000
2226, 56.000000, 420.000000, 12.000000
2227, 60.000000, 420.000000, 12.000000
2228, 64.000000, 420.000000, 12.000000
2229, 68.000000, 420.000000, 12.000000
2230, 72.000000, 420.000000, 12.000000
2231, 36.000000, 424.000000, 12.000000
2232, 40.000000, 424.000000, 12.000000
2233, 44.000000, 424.000000, 12.000000
2234, 48.000000, 424.000000, 12.000000
2235, 52.000000, 424.000000, 12.000000
2236, 56.000000, 424.000000, 12.000000
2237, 60.000000, 424.000000, 12.000000
2238, 64.000000, 424.000000, 12.000000
2239, 68.000000, 424.000000, 12.000000
2240, 72.000000, 424.000000, 12.000000
2241, 36.000000, 428.000000, 12.000000
2242, 40.000000, 428.000000, 12.000000
2243, 44.000000, 428.000000, 12.000000
2244, 48.000000, 428.000000, 12.000000
2245, 52.000000, 428.000000, 12.000000
2246, 56.000000, 428.000000, 12.000000
2247, 60.000000, 428.000000, 12.000000
2248, 64.000000, 428.000000, 12.000000
2249, 68.000000, 428.000000, 12.000000
2250, 72.000000, 428.000000, 12.000000
2251, 36.000000, 432.000000, 12.000000
2252, 40.000000, 432.000000, 12.000000
2253, 44.000000, 432.000000, 12.000000
2254, 48.000000, 432.000000, 12.000000
2255, 52.000000, 432.000000, 12.000000
2256, 56.000000, 432.000000, 12.000000
2257, 60.000000, 432.000000, 12.000000
2258, 64.000000, 432.000000, 12.000000
2259, 68.000000, 432.000000, 12.000000
2260, 72.000000, 432.000000, 12.000000
2261, 36.000000, 436.000000, 12.000000
2262, 40.000000, 436.000000, 12.000000
2263, 44.000000, 436.000000, 12.000000
2264, 48.000000, 436.000000, 12.000000
2265, 52.000000, 436.000000, 12.000000
2266, 56.000000, 436.000000, 12.000000
2267, 60.000000, 436.000000, 12.000000
2268, 64.000000, 436.000000, 12.000000
2269, 68.000000, 436.000000, 12.000000
2270, 72.000000, 436.000000, 12.000000
2271, 36.000000, 440.000000, 12.000000
2272, 40.000000, 440.000000, 12.000000
2273, 44.000000, 440.000000, 12.000000
2274, 48.000000, 440.000000, 12.000000
2275, 52.000000, 440.000000, 12.000000
2276, 56.000000, 440.000000, 12.000000
2277, 60.000000, 440.000000, 12.000000
2278, 64.000000, 440.000000, 12.000000
2279, 68.000000, 440.000000, 12.000000
2280, 72.000000, 440.000000, 12.000000
2281, 36.000000, 444.000000, 12.000000
2282, 40.000000, 444.000000, 12.000000
2283, 44.000000, 444.000000, 12.000000
2284, 48.000000, 444.000000, 12.000000
2285, 52.000000, 444.000000, 12.000000
2286, 56.000000, 444.000000, 12.000000
2287, 60.000000, 444.000000, 12.000000
2288, 64.000000, 444.000000, 12.000000
2289, 68.000000, 444.000000, 12.000000
2290, 72.000000, 444.000000, 12.000000
2291, 36.000000, 448.000000, 12.000000
2292, 40.000000, 448.000000, 12.000000
2293, 44.000000, 448.000000, 12.000000
2294, 48.000000, 448.000000, 12.000000
2295, 52.000000, 448.000000, 12.000000
2296, 56.000000, 448.000000, 12.000000
2297, 60.000000, 448.000000, 12.000000
2298, 64.000000, 448.000000, 12.000000
2299, 68.000000, 448.000000, 12.000000
2300, 72.000000, 448.000000, 12.000000
2301, 36.000000, 452.000000, 12.000000
2302, 40.000000, 452.000000, 12.000000
2303, 44.000000, 452.000000, 12.000000
2304, 48.000000, 452.000000, 12.000000
2305, 52.000000, 452.000000, 12.000000
2306, 56.000000, 452.000000, 12.000000
2307, 60.000000, 452.000000, 12.000000
2308, 64.000000, 452.000000, 12.000000
2309, 68.000000, 452.000000, 12.000000
2310, 72.000000, 452.000000, 12.000000
2311, 36.000000, 456.000000, 12.000000
2312, 40.000000, 456.000000, 12.000000
2313, 44.000000, 456.000000, 12.000000
2314, 48.000000, 456.000000, 12.000000
2315, 52.000000, 456.000000, 12.000000
2316, 56.000000, 456.000000, 12.000000
2317, 60.000000, 456.000000, 12.000000
2318, 64.000000, 456.000000, 12.000000
2319, 68.000000, 456.000000, 12.000000
2320, 72.000000, 456.000000, 12.000000
2321, 36.000000, 228.000000, 16.000000
2322, 40.000000, 228.000000, 16.000000
2323, 44.000000, 228.000000, 16.000000
2324, 48.000000, 228.000000, 16.000000
2325, 52.000000, 228.000000, 16.000000
2326, 56.000000, 228.000000, 16.000000
2327, 60.000000, 228.000000, 16.000000
2328, 64.000000, 228.000000, 16.000000
2329, 68.000000, 228.000000, 16.000000
2330, 72.000000, 228.000000, 16.000000
2331, 36.000000, 232.000000, 16.000000
2332, 40.000000, 232.000000, 16.000000
2333, 44.000000, 232.000000, 16.000000
2334, 48.000000, 232.000000, 16.000000
2335, 52.000000, 232.000000, 16.000000
2336, 56.000000, 232.000000, 16.000000
2337, 60.000000, 232.000000, 16.000000
2338, 64.000000, 232.000000, 16.000000
2339, 68.000000, 232.000000, 16.000000
2340, 72.000000, 232.000000, 16.000000
2341, 36.000000, 236.000000, 16.000000
2342, 40.000000, 236.000000, 16.000000
2343, 44.000000, 236.000000, 16.000000
2344, 48.000000, 236.000000, 16.000000
2345, 52.000000, 236.000000, 16.000000
2346, 56.000000, 236.000000, 16.000000
2347, 60.000000, 236.000000, 16.000000
2348, 64.000000, 236.000000, 16.000000
2349, 68.000000, 236.000000, 16.000000
2350, 72.000000, 236.000000, 16.000000
2351, 36.000000, 240.000000, 16.000000
2352, 40.000000, 240.000000, 16.000000
2353, 44.000000, 240.000000, 16.000000
2354, 48.000000, 240.000000, 16.000000
2355, 52.000000, 240.000000, 16.000000
2356, 56.000000, 240.000000, 16.000000
2357, 60.000000, 240.000000, 16.000000
2358, 64.000000, 240.000000, 16.000000
2359, 68.000000, 240.000000, 16.000000
2360, 72.000000, 240.000000, 16.000000
2361, 36.000000, 244.000000, 16.000000
2362, 40.000000, 244.000000, 16.000000
2363, 44.000000, 244.000000, 16.000000
2364, 48.000000, 244.000000, 16.000000
2365, 52.000000, 244.000000, 16.000000
2366, 56.000000, 244.000000, 16.000000
2367, 60.000000, 244.000000, 16.000000
2368, 64.000000, 244.000000, 16.000000
2369, 68.000000, 244.000000, 16.000000
2370, 72.000000, 244.000000, 16.000000
2371, 36.000000, 248.000000, 16.000000
2372, 40.000000, 248.000000, 16.000000
2373, 44.000000, 248.000000, 16.000000
2374, 48.000000, 248.000000, 16.000000
2375, 52.000000, 248.000000, 16.000000
2376, 56.000000, 248.000000, 16.000000
2377, 60.000000, 248.000000, 16.000000
2378, 64.000000, 248.000000, 16.000000
2379, 68.000000, 248.000000, 16.000000
2380, 72.000000, 248.000000, 16.000000
2381, 36.000000, 252.000000, 16.000000
2382, 40.000000, 252.000000, 16.000000
2383, 44.000000, 252.000000, 16.000000
2384, 48.000000, 252.000000, 16.000000
2385, 52.000000, 252.000000, 16.000000
2386, 56.000000, 252.000000, 16.000000
2387, 60.000000, 252.000000, 16.000000
2388, 64.000000, 252.000000, 16.000000
2389, 68.000000, 252.000000, 16.000000
2390, 72.000000, 252.000000, 16.000000
2391, 36.000000, 256.000000, 16.000000
2392, 40.000000, 256.000000, 16.000000
2393, 44.000000, 256.000000, 16.000000
2394, 48.000000, 256.000000, 16.000000
2395, 52.000000, 256.000000, 16.000000
2396, 56.000000, 256.000000, 16.000000
2397, 60.000000, 256.000000, 16.000000
2398, 64.000000, 256.000000, 16.000000
2399, 68.000000, 256.000000, 16.000000
2400, 72.000000, 256.000000, 16.000000
2401, 36.000000, 260.000000, 16.000000
2402, 40.000000, 260.000000, 16.000000
2403, 44.000000, 260.000000, 16.000000
2404, 48.000000, 260.000000, 16.000000
2405, 52.000000, 260.000000, 16.000000
2406, 56.000000, 260.000000, 16.000000
2407, 60.000000, 260.000000, 16.000000
2408, 64.000000, 260.000000, 16.000000
2409, 68.000000, 260.000000, 16.000000
2410, 72.000000, 260.000000, 16.000000
2411, 36.000000, 264.000000, 16.000000
2412, 40.000000, 264.000000, 16.000000
2413, 44.000000, 264.000000, 16.000000
2414, 48.000000, 264.000000, 16.000000
2415, 52.000000, 264.000000, 16.000000
2416, 56.000000, 264.000000, 16.000000
2417, 60.000000, 264.000000, 16.000000
2418, 64.000000, 264.000000, 16.000000
2419, 68.000000, 264.000000, 16.000000
2420, 72.000000, 264.000000, 16.000000
2421, 36.000000, 268.000000, 16.000000
2422, 40.000000, 268.000000, 16.000000
2423, 44.000000, 268.000000, 16.000000
2424, 48.000000, 268.000000, 16.000000
2425, 52.000000, 268.000000, 16.000000
2426, 56.000000, 268.000000, 16.000000
2427, 60.000000, 268.000000, 16.000000
2428, 64.000000, 268.000000, 16.000000
2429, 68.000000, 268.000000, 16.000000
2430, 72.000000, 268.000000, 16.000000
2431, 36.000000, 272.000000, 16.000000
2432, 40.000000, 272.000000, 16.000000
2433, 44.000000, 272.000000, 16.000000
2434, 48.000000, 272.000000, 16.000000
2435, 52.000000, 272.000000, 16.000000
2436, 56.000000, 272.000000, 16.000000
2437, 60.000000, 272.000000, 16.000000
2438, 64.000000, 272.000000, 16.000000
2439, 68.000000, 272.000000, 16.000000
2440, 72.000000, 272.000000, 16.000000
2441, 36.000000, 276.000000, 16.000000
2442, 40.000000, 276.000000, 16.000000
2443, 44.000000, 276.000000, 16.000000
2444, 48.000000, 276.000000, 16.000000
2445, 52.000000, 276.000000, 16.000000
2446, 56.000000, 276.000000, 16.000000
2447, 60.000000, 276.000000, 16.000000
2448, 64.000000, 276.000000, 16.000000
2449, 68.000000, 276.000000, 16.000000
2450, 72.000000, 276.000000, 16.000000
2451, 36.000000, 280.000000, 16.000000
2452, 40.000000, 280.000000, 16.000000
2453, 44.000000, 280.000000, 16.000000
2454, 48.000000, 280.000000, 16.000000
2455, 52.000000, 280.000000, 16.000000
2456, 56.000000, 280.000000, 16.000000
2457, 60.000000, 280.000000, 16.000000
2458, 64.000000, 280.000000, 16.000000
2459, 68.000000, 280.000000, 16.000000
2460, 72.000000, 280.000000, 16.000000
2461, 36.000000, 284.000000, 16.000000
2462, 40.000000, 284.000000, 16.000000
2463, 44.000000, 284.000000, 16.000000
2464, 48.000000, 284.000000, 16.000000
2465, 52.000000, 284.000000, 16.000000
2466, 56.000000, 284.000000, 16.000000
2467, 60.000000, 284.000000, 16.000000
2468, 64.000000, 284.000000, 16.000000
2469, 68.000000, 284.000000, 16.000000
2470, 72.000000, 284.000000, 16.000000
2471, 36.000000, 288.000000, 16.000000
2472, 40.000000, 288.000000, 16.000000
2473, 44.000000, 288.000000, 16.000000
2474, 48.000000, 288.000000, 16.000000
2475, 52.000000, 288.000000, 16.000000
2476, 56.000000, 288.000000, 16.000000
2477, 60.000000, 288.000000, 16.000000
2478, 64.000000, 288.000000, 16.000000
2479, 68.000000, 288.000000, 16.000000
2480, 72.000000, 288.000000, 16.000000
2481, 36.000000, 292.000000, 16.000000
2482, 40.000000, 292.000000, 16.000000
2483, 44.000000, 292.000000, 16.000000
2484, 48.000000, 292.000000, 16.000000
2485, 52.000000, 292.000000, 16.000000
2486, 56.000000, 292.000000, 16.000000
2487, 60.000000, 292.000000, 16.000000
2488, 64.000000, 292.000000, 16.000000
2489, 68.000000, 292.000000, 16.000000
2490, 72.000000, 292.000000, 16.000000
2491, 36.000000, 296.000000, 16.000000
2492, 40.000000, 296.000000, 16.000000
2493, 44.000000, 296.000000, 16.000000
2494, 48.000000, 296.000000, 16.000000
2495, 52.000000, 296.000000, 16.000000
2496, 56.000000, 296.000000, 16.000000
2497, 60.000000, 296.000000, 16.000000
2498, 64.000000, 296.000000, 16.000000
2499, 68.000000, 296.000000, 16.000000
2500, 72.000000, 296.000000, 16.000000
2501, 36.000000, 300.000000, 16.000000
2502, 40.000000, 300.000000, 16.000000
2503, 44.000000, 300.000000, 16.000000
2504, 48.000000, 300.000000, 16.000000
2505, 52.000000, 300.000000, 16.000000
2506, 56.000000, 300.000000, 16.000000
2507, 60.000000, 300.000000, 16.000000
2508, 64.000000, 300.000000, 16.000000
2509, 68.000000, 300.000000, 16.000000
2510, 72.000000, 300.000000, 16.000000
2511, 36.000000, 304.000000, 16.000000
2512, 40.000000, 304.000000, 16.000000
2513, 44.000000, 304.000000, 16.000000
2514, 48.000000, 304.000000, 16.000000
2515, 52.000000, 304.000000, 16.000000
2516, 56.000000, 304.000000, 16.000000
2517, 60.000000, 304.000000, 16.000000
2518, 64.000000, 304.000000, 16.000000
2519, 68.000000, 304.000000, 16.000000
2520, 72.000000, 304.000000, 16.000000
2521, 36.000000, 308.000000, 16.000000
2522, 40.000000, 308.000000, 16.000000
2523, 44.000000, 308.000000, 16.000000
2524, 48.000000, 308.000000, 16.000000
2525, 52.000000, 308.000000, 16.000000
2526, 56.000000, 308.000000, 16.000000
2527, 60.000000, 308.000000, 16.000000
2528, 64.000000, 308.000000, 16.000000
2529, 68.000000, 308.000000, 16.000000
2530, 72.000000, 308.000000, 16.000000
2531, 36.000000, 312.000000, 16.000000
2532, 40.000000, 312.000000, 16.000000
2533, 44.000000, 312.000000, 16.000000
2534, 48.000000, 312.000000, 16.000000
2535, 52.000000, 312.000000, 16.000000
2536, 56.000000, 312.000000, 16.000000
2537, 60.000000, 312.000000, 16.000000
2538, 64.000000, 312.000000, 16.000000
2539, 68.000000, 312.000000, 16.000000
2540, 72.000000, 312.000000, 16.000000
2541, 36.000000, 316.000000, 16.000000
2542, 40.000000, 316.000000, 16.000000
2543, 44.000000, 316.000000, 16.000000
2544, 48.000000, 316.000000, 16.000000
2545, 52.000000, 316.000000, 16.000000
2546, 56.000000, 316.000000, 16.000000
2547, 60.000000, 316.000000, 16.000000
2548, 64.000000, 316.000000, 16.000000
2549, 68.000000, 316.000000, 16.000000
2550, 72.000000, 316.000000, 16.000000
2551, 36.000000, 320.000000, 16.000000
2552, 40.000000, 320.000000, 16.000000
2553, 44.000000, 320.000000, 16.000000
2554, 48.000000, 320.000000, 16.000000
2555, 52.000000, 320.000000, 16.000000
2556, 56.000000, 320.000000, 16.000000
2557, 60.000000, 320.000000, 16.000000
2558, 64.000000, 320.000000, 16.000000
2559, 68.000000, 320.000000, 16.000000
2560, 72.000000, 320.000000, 16.000000
2561, 36.000000, 324.000000, 16.000000
2562, 40.000000, 324.000000, 16.000000
2563, 44.000000, 324.000000, 16.000000
2564, 48.000000, 324.000000, 16.000000
2565, 52.000000, 324.000000, 16.000000
2566, 56.000000, 324.000000, 16.000000
2567, 60.000000, 324.000000, 16.000000
2568, 64.000000, 324.000000, 16.000000
2569, 68.000000, 324.000000, 16.000000
2570, 72.000000, 324.000000, 16.000000
2571, 36.000000, 328.000000, 16.000000
2572, 40.000000, 328.000000, 16.000000
2573, 44.000000, 328.000000, 16.000000
2574, 48.000000, 328.000000, 16.000000
2575, 52.000000, 328.000000, 16.000000
2576, 56.000000, 328.000000, 16.000000
2577, 60.000000, 328.000000, 16.000000
2578, 64.000000, 328.000000, 16.000000
2579, 68.000000, 328.000000, 16.000000
2580, 72.000000, 328.000000, 16.000000
2581, 36.000000, 332.000000, 16.000000
2582, 40.000000, 332.000000, 16.000000
2583, 44.000000, 332.000000, 16.000000
2584, 48.000000, 332.000000, 16.000000
2585, 52.000000, 332.000000, 16.000000
2586, 56.000000, 332.000000, 16.000000
2587, 60.000000, 332.000000, 16.000000
2588, 64.000000, 332.000000, 16.000000
2589, 68.000000, 332.000000, 16.000000
2590, 72.000000, 332.000000, 16.000000
2591, 36.000000, 336.000000, 16.000000
2592, 40.000000, 336.000000, 16.000000
2593, 44.000000, 336.000000, 16.000000
2594, 48.000000, 336.000000, 16.000000
2595, 52.000000, 336.000000, 16.000000
2596, 56.000000, 336.000000, 16.000000
2597, 60.000000, 336.000000, 16.000000
2598, 64.000000, 336.000000, 16.000000
2599, 68.000000, 336.000000, 16.000000
2600, 72.000000, 336.000000, 16.000000
2601, 36.000000, 340.000000, 16.000000
2602, 40.000000, 340.000000, 16.000000
2603, 44.000000, 340.000000, 16.000000
2604, 48.000000, 340.000000, 16.000000
2605, 52.000000, 340.000000, 16.000000
2606, 56.000000, 340.000000, 16.000000
2607, 60.000000, 340.000000, 16.000000
2608, 64.000000, 340.000000, 16.000000
2609, 68.000000, 340.000000, 16.000000
2610, 72.000000, 340.000000, 16.000000
2611, 36.000000, 344.000000, 16.000000
2612, 40.000000, 344.000000, 16.000000
2613, 44.000000, 344.000000, 16.000000
2614, 48.000000, 344.000000, 16.000000
2615, 52.000000, 344.000000, 16.000000
2616, 56.000000, 344.000000, 16.000000
2617, 60.000000, 344.000000, 16.000000
2618, 64.000000, 344.000000, 16.000000
2619, 68.000000, 344.000000, 16.000000
2620, 72.000000, 344.000000, 16.000000
2621, 36.000000, 348.000000, 16.000000
2622, 40.000000, 348.000000, 16.000000
2623, 44.000000, 348.000000, 16.000000
2624, 48.000000, 348.000000, 16.000000
2625, 52.000000, 348.000000, 16.000000
2626, 56.000000, 348.000000, 16.000000
2627, 60.000000, 348.000000, 16.000000
2628, 64.000000, 348.000000, 16.000000
2629, 68.000000, 348.000000, 16.000000
2630, 72.000000, 348.000000, 16.000000
2631, 36.000000, 352.000000, 16.000000
2632, 40.000000, 352.000000, 16.000000
2633, 44.000000, 352.000000, 16.000000
2634, 48.000000, 352.000000, 16.000000
2635, 52.000000, 352.000000, 16.000000
2636, 56.000000, 352.000000, 16.000000
2637, 60.000000, 352.000000, 16.000000
2638, 64.000000, 352.000000, 16.000000
2639, 68.000000, 352.000000, 16.000000
2640, 72.000000, 352.000000, 16.000000
2641, 36.000000, 356.000000, 16.000000
2642, 40.000000, 356.000000, 16.000000
2643, 44.000000, 356.000000, 16.000000
2644, 48.000000, 356.000000, 16.000000
2645, 52.000000, 356.000000, 16.000000
2646, 56.000000, 356.000000, 16.000000
2647, 60.000000, 356.000000, 16.000000
2648, 64.000000, 356.000000, 16.000000
2649, 68.000000, 356.000000, 16.000000
2650, 72.000000, 356.000000, 16.000000
2651, 36.000000, 360.000000, 16.000000
2652, 40.000000, 360.000000, 16.000000
2653, 44.000000, 360.000000, 16.000000
2654, 48.000000, 360.000000, 16.000000
2655, 52.000000, 360.000000, 16.000000
2656, 56.000000, 360.000000, 16.000000
2657, 60.000000, 360.000000, 16.000000
2658, 64.000000, 360.000000, 16.000000
2659, 68.000000, 360.000000, 16.000000
2660, 72.000000, 360.000000, 16.000000
2661, 36.000000, 364.000000, 16.000000
2662, 40.000000, 364.000000, 16.000000
2663, 44.000000, 364.000000, 16.000000
2664, 48.000000, 364.000000, 16.000000
2665, 52.000000, 364.000000, 16.000000
2666, 56.000000, 364.000000, 16.000000
2667, 60.000000, 364.000000, 16.000000
2668, 64.000000, 364.000000, 16.000000
2669, 68.000000, 364.000000, 16.000000
2670, 72.000000, 364.000000, 16.000000
2671, 36.000000, 368.000000, 16.000000
2672, 40.000000, 368.000000, 16.000000
2673, 44.000000, 368.000000, 16.000000
2674, 48.000000, 368.000000, 16.000000
2675, 52.000000, 368.000000, 16.000000
2676, 56.000000, 368.000000, 16.000000
2677, 60.000000, 368.000000, 16.000000
2678, 64.000000, 368.000000, 16.000000
2679, 68.000000, 368.000000, 16.000000
2680, 72.000000, 368.000000, 16.000000
2681, 36.000000, 372.000000, 16.000000
2682, 40.000000, 372.000000, 16.000000
2683, 44.000000, 372.000000, 16.000000
2684, 48.000000, 372.000000, 16.000000
2685, 52.000000, 372.000000, 16.000000
2686, 56.000000, 372.000000, 16.000000
2687, 60.000000, 372.000000, 16.000000
2688, 64.000000, 372.000000, 16.000000
2689, 68.000000, 372.000000, 16.000000
2690, 72.000000, 372.000000, 16.000000
2691, 36.000000, 376.000000, 16.000000
2692, 40.000000, 376.000000, 16.000000
2693, 44.000000, 376.000000, 16.000000
2694, 48.000000, 376.000000, 16.000000
2695, 52.000000, 376.000000, 16.000000
2696, 56.000000, 376.000000, 16.000000
2697, 60.000000, 376.000000, 16.000000
2698, 64.000000, 376.000000, 16.000000
2699, 68.000000, 376.000000, 16.000000
2700, 72.000000, 376.000000, 16.000000
2701, 36.000000, 380.000000, 16.000000
2702, 40.000000, 380.000000, 16.000000
2703, 44.000000, 380.000000, 16.000000
2704, 48.000000, 380.000000, 16.000000
2705, 52.000000, 380.000000, 16.000000
2706, 56.000000, 380.000000, 16.000000
2707, 60.000000, 380.000000, 16.000000
2708, 64.000000, 380.000000, 16.000000
2709, 68.000000, 380.000000, 16.000000
2710, 72.000000, 380.000000, 16.000000
2711, 36.000000, 384.000000, 16.000000
2712, 40.000000, 384.000000, 16.000000
2713, 44.000000, 384.000000, 16.000000
2714, 48.000000, 384.000000, 16.000000
2715, 52.000000, 384.000000, 16.000000
2716, 56.000000, 384.000000, 16.000000
2717, 60.000000, 384.000000, 16.000000
2718, 64.000000, 384.000000, 16.000000
2719, 68.000000, 384.000000, 16.000000
2720, 72.000000, 384.000000, 16.000000
2721, 36.000000, 388.000000, 16.000000
2722, 40.000000, 388.000000, 16.000000
2723, 44.000000, 388.000000, 16.000000
2724, 48.000000, 388.000000, 16.000000
2725, 52.000000, 388.000000, 16.000000
2726, 56.000000, 388.000000, 16.000000
2727, 60.000000, 388.000000, 16.000000
2728, 64.000000, 388.000000, 16.000000
2729, 68.000000, 388.000000, 16.000000
2730, 72.000000, 388.000000, 16.000000
2731, 36.000000, 392.000000, 16.000000
2732, 40.000000, 392.000000, 16.000000
2733, 44.000000, 392.000000, 16.000000
2734, 48.000000, 392.000000, 16.000000
2735, 52.000000, 392.000000, 16.000000
2736, 56.000000, 392.000000, 16.000000
2737, 60.000000, 392.000000, 16.000000
2738, 64.000000, 392.000000, 16.000000
2739, 68.000000, 392.000000, 16.000000
2740, 72.000000, 392.000000, 16.000000
2741, 36.000000, 396.000000, 16.000000
2742, 40.000000, 396.000000, 16.000000
2743, 44.000000, 396.000000, 16.000000
2744, 48.000000, 396.000000, 16.000000
2745, 52.000000, 396.000000, 16.000000
2746, 56.000000, 396.000000, 16.000000
2747, 60.000000, 396.000000, 16.000000
2748, 64.000000, 396.000000, 16.000000
2749, 68.000000, 396.000000, 16.000000
2750, 72.000000, 396.000000, 16.000000
2751, 36.000000, 400.000000, 16.000000
2752, 40.000000, 400.000000, 16.000000
2753, 44.000000, 400.000000, 16.000000
2754, 48.000000, 400.000000, 16.000000
2755, 52.000000, 400.000000, 16.000000
2756, 56.000000, 400.000000, 16.000000
2757, 60.000000, 400.000000, 16.000000
2758, 64.000000, 400.000000, 16.000000
2759, 68.000000, 400.000000, 16.000000
2760, 72.000000, 400.000000, 16.000000
2761, 36.000000, 404.000000, 16.000000
2762, 40.000000, 404.000000, 16.000000
2763, 44.000000, 404.000000, 16.000000
2764, 48.000000, 404.000000, 16.000000
2765, 52.000000, 404.000000, 16.000000
2766, 56.000000, 404.000000, 16.000000
2767, 60.000000, 404.000000, 16.000000
2768, 64.000000, 404.000000, 16.000000
2769, 68.000000, 404.000000, 16.000000
2770, 72.000000, 404.000000, 16.000000
2771, 36.000000, 408.000000, 16.000000
2772, 40.000000, 408.000000, 16.000000
2773, 44.000000, 408.000000, 16.000000
2774, 48.000000, 408.000000, 16.000000
2775, 52.000000, 408.000000, 16.000000
2776, 56.000000, 408.000000, 16.000000
2777, 60.000000, 408.000000, 16.000000
2778, 64.000000, 408.000000, 16.000000
2779, 68.000000, 408.000000, 16.000000
2780, 72.000000, 408.000000, 16.000000
2781, 36.000000, 412.000000, 16.000000
2782, 40.000000, 412.000000, 16.000000
2783, 44.000000, 412.000000, 16.000000
2784, 48.000000, 412.000000, 16.000000
2785, 52.000000, 412.000000, 16.000000
2786, 56.000000, 412.000000, 16.000000
2787, 60.000000, 412.000000, 16.000000
2788, 64.000000, 412.000000, 16.000000
2789, 68.000000, 412.000000, 16.000000
2790, 72.000000, 412.000000, 16.000000
2791, 36.000000, 416.000000, 16.000000
2792, 40.000000, 416.000000, 16.000000
2793, 44.000000, 416.000000, 16.000000
2794, 48.000000, 416.000000, 16.000000
2795, 52.000000, 416.000000, 16.000000
2796, 56.000000, 416.000000, 16.000000
2797, 60.000000, 416.000000, 16.000000
2798, 64.000000, 416.000000, 16.000000
2799, 68.000000, 416.000000, 16.000000
2800, 72.000000, 416.000000, 16.000000
2801, 36.000000, 420.000000, 16.000000
2802, 40.000000, 420.000000, 16.000000
2803, 44.000000, 420.000000, 16.000000
2804, 48.000000, 420.000000, 16.000000
2805, 52.000000, 420.000000, 16.000000
2806, 56.000000, 420.000000, 16.000000
2807, 60.000000, 420.000000, 16.000000
2808, 64.000000, 420.000000, 16.000000
2809, 68.000000, 420.000000, 16.000000
2810, 72.000000, 420.000000, 16.000000
2811, 36.000000, 424.000000, 16.000000
2812, 40.000000, 424.000000, 16.000000
2813, 44.000000, 424.000000, 16.000000
2814, 48.000000, 424.000000, 16.000000
2815, 52.000000, 424.000000, 16.000000
2816, 56.000000, 424.000000, 16.000000
2817, 60.000000, 424.000000, 16.000000
2818, 64.000000, 424.000000, 16.000000
2819, 68.000000, 424.000000, 16.000000
2820, 72.000000, 424.000000, 16.000000
2821, 36.000000, 428.000000, 16.000000
2822, 40.000000, 428.000000, 16.000000
2823, 44.000000, 428.000000, 16.000000
2824, 48.000000, 428.000000, 16.000000
2825, 52.000000, 428.000000, 16.000000
2826, 56.000000, 428.000000, 16.000000
2827, 60.000000, 428.000000, 16.000000
2828, 64.000000, 428.000000, 16.000000
2829, 68.000000, 428.000000, 16.000000
2830, 72.000000, 428.000000, 16.000000
2831, 36.000000, 432.000000, 16.000000
2832, 40.000000, 432.000000, 16.000000
2833, 44.000000, 432.000000, 16.000000
2834, 48.000000, 432.000000, 16.000000
2835, 52.000000, 432.000000, 16.000000
2836, 56.000000, 432.000000, 16.000000
2837, 60.000000, 432.000000, 16.000000
2838, 64.000000, 432.000000, 16.000000
2839, 68.000000, 432.000000, 16.000000
2840, 72.000000, 432.000000, 16.000000
2841, 36.000000, 436.000000, 16.000000
2842, 40.000000, 436.000000, 16.000000
2843, 44.000000, 436.000000, 16.000000
2844, 48.000000, 436.000000, 16.000000
2845, 52.000000, 436.000000, 16.000000
2846, 56.000000, 436.000000, 16.000000
2847, 60.000000, 436.000000, 16.000000
2848, 64.000000, 436.000000, 16.000000
2849, 68.000000, 436.000000, 16.000000
2850, 72.000000, 436.000000, 16.000000
2851, 36.000000, 440.000000, 16.000000
2852, 40.000000, 440.000000, 16.000000
2853, 44.000000, 440.000000, 16.000000
2854, 48.000000, 440.000000, 16.000000
2855, 52.000000, 440.000000, 16.000000
2856, 56.000000, 440.000000, 16.000000
2857, 60.000000, 440.000000, 16.000000
2858, 64.000000, 440.000000, 16.000000
2859, 68.000000, 440.000000, 16.000000
2860, 72.000000, 440.000000, 16.000000
2861, 36.000000, 444.000000, 16.000000
2862, 40.000000, 444.000000, 16.000000
2863, 44.000000, 444.000000, 16.000000
2864, 48.000000, 444.000000, 16.000000
2865, 52.000000, 444.000000, 16.000000
2866, 56.000000, 444.000000, 16.000000
2867, 60.000000, 444.000000, 16.000000
2868, 64.000000, 444.000000, 16.000000
2869, 68.000000, 444.000000, 16.000000
2870, 72.000000, 444.000000, 16.000000
2871, 36.000000, 448.000000, 16.000000
2872, 40.000000, 448.000000, 16.000000
2873, 44.000000, 448.000000, 16.000000
2874, 48.000000, 448.000000, 16.000000
2875, 52.000000, 448.000000, 16.000000
2876, 56.000000, 448.000000, 16.000000
2877, 60.000000, 448.000000, 16.000000
2878, 64.000000, 448.000000, 16.000000
2879, 68.000000, 448.000000, 16.000000
2880, 72.000000, 448.000000, 16.000000
2881, 36.000000, 452.000000, 16.000000
2882, 40.000000, 452.000000, 16.000000
2883, 44.000000, 452.000000, 16.000000
2884, 48.000000, 452.000000, 16.000000
2885, 52.000000, 452.000000, 16.000000
2886, 56.000000, 452.000000, 16.000000
2887, 60.000000, 452.000000, 16.000000
2888, 64.000000, 452.000000, 16.000000
2889, 68.000000, 452.000000, 16.000000
2890, 72.000000, 452.000000, 16.000000
2891, 36.000000, 456.000000, 16.000000
2892, 40.000000, 456.000000, 16.000000
2893, 44.000000, 456.000000, 16.000000
2894, 48.000000, 456.000000, 16.000000
2895, 52.000000, 456.000000, 16.000000
2896, 56.000000, 456.000000, 16.000000
2897, 60.000000, 456.000000, 16.000000
2898, 64.000000, 456.000000, 16.000000
2899, 68.000000, 456.000000, 16.000000
2900, 72.000000, 456.000000, 16.000000
2901, 36.000000, 228.000000, 20.000000
2902, 40.000000, 228.000000, 20.000000
2903, 44.000000, 228.000000, 20.000000
2904, 48.000000, 228.000000, 20.000000
2905, 52.000000, 228.000000, 20.000000
2906, 56.000000, 228.000000, 20.000000
2907, 60.000000, 228.000000, 20.000000
2908, 64.000000, 228.000000, 20.000000
2909, 68.000000, 228.000000, 20.000000
2910, 72.000000, 228.000000, 20.000000
2911, 36.000000, 232.000000, 20.000000
2912, 40.000000, 232.000000, 20.000000
2913, 44.000000, 232.000000, 20.000000
2914, 48.000000, 232.000000, 20.000000
2915, 52.000000, 232.000000, 20.000000
2916, 56.000000, 232.000000, 20.000000
2917, 60.000000, 232.000000, 20.000000
2918, 64.000000, 232.000000, 20.000000
2919, 68.000000, 232.000000, 20.000000
2920, 72.000000, 232.000000, 20.000000
2921, 36.000000, 236.000000, 20.000000
2922, 40.000000, 236.000000, 20.000000
2923, 44.000000, 236.000000, 20.000000
2924, 48.000000, 236.000000, 20.000000
2925, 52.000000, 236.000000, 20.000000
2926, 56.000000, 236.000000, 20.000000
2927, 60.000000, 236.000000, 20.000000
2928, 64.000000, 236.000000, 20.000000
2929, 68.000000, 236.000000, 20.000000
2930, 72.000000, 236.000000, 20.000000
2931, 36.000000, 240.000000, 20.000000
2932, 40.000000, 240.000000, 20.000000
2933, 44.000000, 240.000000, 20.000000
2934, 48.000000, 240.000000, 20.000000
2935, 52.000000, 240.000000, 20.000000
2936, 56.000000, 240.000000, 20.000000
2937, 60.000000, 240.000000, 20.000000
2938, 64.000000, 240.000000, 20.000000
2939, 68.000000, 240.000000, 20.000000
2940, 72.000000, 240.000000, 20.000000
2941, 36.000000, 244.000000, 20.000000
2942, 40.000000, 244.000000, 20.000000
2943, 44.000000, 244.000000, 20.000000
2944, 48.000000, 244.000000, 20.000000
2945, 52.000000, 244.000000, 20.000000
2946, 56.000000, 244.000000, 20.000000
2947, 60.000000, 244.000000, 20.000000
2948, 64.000000, 244.000000, 20.000000
2949, 68.000000, 244.000000, 20.000000
2950, 72.000000, 244.000000, 20.000000
2951, 36.000000, 248.000000, 20.000000
2952, 40.000000, 248.000000, 20.000000
2953, 44.000000, 248.000000, 20.000000
2954, 48.000000, 248.000000, 20.000000
2955, 52.000000, 248.000000, 20.000000
2956, 56.000000, 248.000000, 20.000000
2957, 60.000000, 248.000000, 20.000000
2958, 64.000000, 248.000000, 20.000000
2959, 68.000000, 248.000000, 20.000000
2960, 72.000000, 248.000000, 20.000000
2961, 36.000000, 252.000000, 20.000000
2962, 40.000000, 252.000000, 20.000000
2963, 44.000000, 252.000000, 20.000000
2964, 48.000000, 252.000000, 20.000000
2965, 52.000000, 252.000000, 20.000000
2966, 56.000000, 252.000000, 20.000000
2967, 60.000000, 252.000000, 20.000000
2968, 64.000000, 252.000000, 20.000000
2969, 68.000000, 252.000000, 20.000000
2970, 72.000000, 252.000000, 20.000000
2971, 36.000000, 256.000000, 20.000000
2972, 40.000000, 256.000000, 20.000000
2973, 44.000000, 256.000000, 20.000000
2974, 48.000000, 256.000000, 20.000000
2975, 52.000000, 256.000000, 20.000000
2976, 56.000000, 256.000000, 20.000000
2977, 60.000000, 256.000000, 20.000000
2978, 64.000000, 256.000000, 20.000000
2979, 68.000000, 256.000000, 20.000000
2980, 72.000000, 256.000000, 20.000000
2981, 36.000000, 260.000000, 20.000000
2982, 40.000000, 260.000000, 20.000000
2983, 44.000000, 260.000000, 20.000000
2984, 48.000000, 260.000000, 20.000000
2985, 52.000000, 260.000000, 20.000000
2986, 56.000000, 260.000000, 20.000000
2987, 60.000000, 260.000000, 20.000000
2988, 64.000000, 260.000000, 20.000000
2989, 68.000000, 260.000000, 20.000000
2990, 72.000000, 260.000000, 20.000000
2991, 36.000000, 264.000000, 20.000000
2992, 40.000000, 264.000000, 20.000000
2993, 44.000000, 264.000000, 20.000000
2994, 48.000000, 264.000000, 20.000000
2995, 52.000000, 264.000000, 20.000000
2996, 56.000000, 264.000000, 20.000000
2997, 60.000000, 264.000000, 20.000000
2998, 64.000000, 264.000000, 20.000000
2999, 68.000000, 264.000000, 20.000000
3000, 72.000000, 264.000000, 20.000000
3001, 36.000000, 268.000000, 20.000000
3002, 40.000000, 268.000000, 20.000000
3003, 44.000000, 268.000000, 20.000000
3004, 48.000000, 268.000000, 20.000000
3005, 52.000000, 268.000000, 20.000000
3006, 56.000000, 268.000000, 20.000000
3007, 60.000000, 268.000000, 20.000000
3008, 64.000000, 268.000000, 20.000000
3009, 68.000000, 268.000000, 20.000000
3010, 72.000000, 268.000000, 20.000000
3011, 36.000000, 272.000000, 20.000000
3012, 40.000000, 272.000000, 20.000000
3013, 44.000000, 272.000000, 20.000000
3014, 48.000000, 272.000000, 20.000000
3015, 52.000000, 272.000000, 20.000000
3016, 56.000000, 272.000000, 20.000000
3017, 60.000000, 272.000000, 20.000000
3018, 64.000000, 272.000000, 20.000000
3019, 68.000000, 272.000000, 20.000000
3020, 72.000000, 272.000000, 20.000000
3021, 36.000000, 276.000000, 20.000000
3022, 40.000000, 276.000000, 20.000000
3023, 44.000000, 276.000000, 20.000000
3024, 48.000000, 276.000000, 20.000000
3025, 52.000000, 276.000000, 20.000000
3026, 56.000000, 276.000000, 20.000000
3027, 60.000000, 276.000000, 20.000000
3028, 64.000000, 276.000000, 20.000000
3029, 68.000000, 276.000000, 20.000000
3030, 72.000000, 276.000000, 20.000000
3031, 36.000000, 280.000000, 20.000000
3032, 40.000000, 280.000000, 20.000000
3033, 44.000000, 280.000000, 20.000000
3034, 48.000000, 280.000000, 20.000000
3035, 52.000000, 280.000000, 20.000000
3036, 56.000000, 280.000000, 20.000000
3037, 60.000000, 280.000000, 20.000000
3038, 64.000000, 280.000000, 20.000000
3039, 68.000000, 280.000000, 20.000000
3040, 72.000000, 280.000000, 20.000000
3041, 36.000000, 284.000000, 20.000000
3042, 40.000000, 284.000000, 20.000000
3043, 44.000000, 284.000000, 20.000000
3044, 48.000000, 284.000000, 20.000000
3045, 52.000000, 284.000000, 20.000000
3046, 56.000000, 284.000000, 20.000000
3047, 60.000000, 284.000000, 20.000000
3048, 64.000000, 284.000000, 20.000000
3049, 68.000000, 284.000000, 20.000000
3050, 72.000000, 284.000000, 20.000000
3051, 36.000000, 288.000000, 20.000000
3052, 40.000000, 288.000000, 20.000000
3053, 44.000000, 288.000000, 20.000000
3054, 48.000000, 288.000000, 20.000000
3055, 52.000000, 288.000000, 20.000000
3056, 56.000000, 288.000000, 20.000000
3057, 60.000000, 288.000000, 20.000000
3058, 64.000000, 288.000000, 20.000000
3059, 68.000000, 288.000000, 20.000000
3060, 72.000000, 288.000000, 20.000000
3061, 36.000000, 292.000000, 20.000000
3062, 40.000000, 292.000000, 20.000000
3063, 44.000000, 292.000000, 20.000000
3064, 48.000000, 292.000000, 20.000000
3065, 52.000000, 292.000000, 20.000000
3066, 56.000000, 292.000000, 20.000000
3067, 60.000000, 292.000000, 20.000000
3068, 64.000000, 292.000000, 20.000000
3069, 68.000000, 292.000000, 20.000000
3070, 72.000000, 292.000000, 20.000000
3071, 36.000000, 296.000000, 20.000000
3072, 40.000000, 296.000000, 20.000000
3073, 44.000000, 296.000000, 20.000000
3074, 48.000000, 296.000000, 20.000000
3075, 52.000000, 296.000000, 20.000000
3076, 56.000000, 296.000000, 20.000000
3077, 60.000000, 296.000000, 20.000000
3078, 64.000000, 296.000000, 20.000000
3079, 68.000000, 296.000000, 20.000000
3080, 72.000000, 296.000000, 20.000000
3081, 36.000000, 300.000000, 20.000000
3082, 40.000000, 300.000000, 20.000000
3083, 44.000000, 300.000000, 20.000000
3084, 48.000000, 300.000000, 20.000000
3085, 52.000000, 300.000000, 20.000000
3086, 56.000000, 300.000000, 20.000000
3087, 60.000000, 300.000000, 20.000000
3088, 64.000000, 300.000000, 20.000000
3089, 68.000000, 300.000000, 20.000000
3090, 72.000000, 300.000000, 20.000000
3091, 36.000000, 304.000000, 20.000000
3092, 40.000000, 304.000000, 20.000000
3093, 44.000000, 304.000000, 20.000000
3094, 48.000000, 304.000000, 20.000000
3095, 52.000000, 304.000000, 20.000000
3096, 56.000000, 304.000000, 20.000000
3097, 60.000000, 304.000000, 20.000000
3098, 64.000000, 304.000000, 20.000000
3099, 68.000000, 304.000000, 20.000000
3100, 72.000000, 304.000000, 20.000000
3101, 36.000000, 308.000000, 20.000000
3102, 40.000000, 308.000000, 20.000000
3103, 44.000000, 308.000000, 20.000000
3104, 48.000000, 308.000000, 20.000000
3105, 52.000000, 308.000000, 20.000000
3106, 56.000000, 308.000000, 20.000000
3107, 60.000000, 308.000000, 20.000000
3108, 64.000000, 308.000000, 20.000000
3109, 68.000000, 308.000000, 20.000000
3110, 72.000000, 308.000000, 20.000000
3111, 36.000000, 312.000000, 20.000000
3112, 40.000000, 312.000000, 20.000000
3113, 44.000000, 312.000000, 20.000000
3114, 48.000000, 312.000000, 20.000000
3115, 52.000000, 312.000000, 20.000000
3116, 56.000000, 312.000000, 20.000000
3117, 60.000000, 312.000000, 20.000000
3118, 64.000000, 312.000000, 20.000000
3119, 68.000000, 312.000000, 20.000000
3120, 72.000000, 312.000000, 20.000000
3121, 36.000000, 316.000000, 20.000000
3122, 40.000000, 316.000000, 20.000000
3123, 44.000000, 316.000000, 20.000000
3124, 48.000000, 316.000000, 20.000000
3125, 52.000000, 316.000000, 20.000000
3126, 56.000000, 316.000000, 20.000000
3127, 60.000000, 316.000000, 20.000000
3128, 64.000000, 316.000000, 20.000000
3129, 68.000000, 316.000000, 20.000000
3130, 72.000000, 316.000000, 20.000000
3131, 36.000000, 320.000000, 20.000000
3132, 40.000000, 320.000000, 20.000000
3133, 44.000000, 320.000000, 20.000000
3134, 48.000000, 320.000000, 20.000000
3135, 52.000000, 320.000000, 20.000000
3136, 56.000000, 320.000000, 20.000000
3137, 60.000000, 320.000000, 20.000000
3138, 64.000000, 320.000000, 20.000000
3139, 68.000000, 320.000000, 20.000000
3140, 72.000000, 320.000000, 20.000000
3141, 36.000000, 324.000000, 20.000000
3142, 40.000000, 324.000000, 20.000000
3143, 44.000000, 324.000000, 20.000000
3144, 48.000000, 324.000000, 20.000000
3145, 52.000000, 324.000000, 20.000000
3146, 56.000000, 324.000000, 20.000000
3147, 60.000000, 324.000000, 20.000000
3148, 64.000000, 324.000000, 20.000000
3149, 68.000000, 324.000000, 20.000000
3150, 72.000000, 324.000000, 20.000000
3151, 36.000000, 328.000000, 20.000000
3152, 40.000000, 328.000000, 20.000000
3153, 44.000000, 328.000000, 20.000000
3154, 48.000000, 328.000000, 20.000000
3155, 52.000000, 328.000000, 20.000000
3156, 56.000000, 328.000000, 20.000000
3157, 60.000000, 328.000000, 20.000000
3158, 64.000000, 328.000000, 20.000000
3159, 68.000000, 328.000000, 20.000000
3160, 72.000000, 328.000000, 20.000000
3161, 36.000000, 332.000000, 20.000000
3162, 40.000000, 332.000000, 20.000000
3163, 44.000000, 332.000000, 20.000000
3164, 48.000000, 332.000000, 20.000000
3165, 52.000000, 332.000000, 20.000000
3166, 56.000000, 332.000000, 20.000000
3167, 60.000000, 332.000000, 20.000000
3168, 64.000000, 332.000000, 20.000000
3169, 68.000000, 332.000000, 20.000000
3170, 72.000000, 332.000000, 20.000000
3171, 36.000000, 336.000000, 20.000000
3172, 40.000000, 336.000000, 20.000000
3173, 44.000000, 336.000000, 20.000000
3174, 48.000000, 336.000000, 20.000000
3175, 52.000000, 336.000000, 20.000000
3176, 56.000000, 336.000000, 20.000000
3177, 60.000000, 336.000000, 20.000000
3178, 64.000000, 336.000000, 20.000000
3179, 68.000000, 336.000000, 20.000000
3180, 72.000000, 336.000000, 20.000000
3181, 36.000000, 340.000000, 20.000000
3182, 40.000000, 340.000000, 20.000000
3183, 44.000000, 340.000000, 20.000000
3184, 48.000000, 340.000000, 20.000000
3185, 52.000000, 340.000000, 20.000000
3186, 56.000000, 340.000000, 20.000000
3187, 60.000000, 340.000000, 20.000000
3188, 64.000000, 340.000000, 20.000000
3189, 68.000000, 340.000000, 20.000000
3190, 72.000000, 340.000000, 20.000000
3191, 36.000000, 344.000000, 20.000000
3192, 40.000000, 344.000000, 20.000000
3193, 44.000000, 344.000000, 20.000000
3194, 48.000000, 344.000000, 20.000000
3195, 52.000000, 344.000000, 20.000000
3196, 56.000000, 344.000000, 20.000000
3197, 60.000000, 344.000000, 20.000000
3198, 64.000000, 344.000000, 20.000000
3199, 68.000000, 344.000000, 20.000000
3200, 72.000000, 344.000000, 20.000000
3201, 36.000000, 348.000000, 20.000000
3202, 40.000000, 348.000000, 20.000000
3203, 44.000000, 348.000000, 20.000000
3204, 48.000000, 348.000000, 20.000000
3205, 52.000000, 348.000000, 20.000000
3206, 56.000000, 348.000000, 20.000000
3207, 60.000000, 348.000000, 20.000000
3208, 64.000000, 348.000000, 20.000000
3209, 68.000000, 348.000000, 20.000000
3210, 72.000000, 348.000000, 20.000000
3211, 36.000000, 352.000000, 20.000000
3212, 40.000000, 352.000000, 20.000000
3213, 44.000000, 352.000000, 20.000000
3214, 48.000000, 352.000000, 20.000000
3215, 52.000000, 352.000000, 20.000000
3216, 56.000000, 352.000000, 20.000000
3217, 60.000000, 352.000000, 20.000000
3218, 64.000000, 352.000000, 20.000000
3219, 68.000000, 352.000000, 20.000000
3220, 72.000000, 352.000000, 20.000000
3221, 36.000000, 356.000000, 20.000000
3222, 40.000000, 356.000000, 20.000000
3223, 44.000000, 356.000000, 20.000000
3224, 48.000000, 356.000000, 20.000000
3225, 52.000000, 356.000000, 20.000000
3226, 56.000000, 356.000000, 20.000000
3227, 60.000000, 356.000000, 20.000000
3228, 64.000000, 356.000000, 20.000000
3229, 68.000000, 356.000000, 20.000000
3230, 72.000000, 356.000000, 20.000000
3231, 36.000000, 360.000000, 20.000000
3232, 40.000000, 360.000000, 20.000000
3233, 44.000000, 360.000000, 20.000000
3234, 48.000000, 360.000000, 20.000000
3235, 52.000000, 360.000000, 20.000000
3236, 56.000000, 360.000000, 20.000000
3237, 60.000000, 360.000000, 20.000000
3238, 64.000000, 360.000000, 20.000000
3239, 68.000000, 360.000000, 20.000000
3240, 72.000000, 360.000000, 20.000000
3241, 36.000000, 364.000000, 20.000000
3242, 40.000000, 364.000000, 20.000000
3243, 44.000000, 364.000000, 20.000000
3244, 48.000000, 364.000000, 20.000000
3245, 52.000000, 364.000000, 20.000000
3246, 56.000000, 364.000000, 20.000000
3247, 60.000000, 364.000000, 20.000000
3248, 64.000000, 364.000000, 20.000000
3249, 68.000000, 364.000000, 20.000000
3250, 72.000000, 364.000000, 20.000000
3251, 36.000000, 368.000000, 20.000000
3252, 40.000000, 368.000000, 20.000000
3253, 44.000000, 368.000000, 20.000000
3254, 48.000000, 368.000000, 20.000000
3255, 52.000000, 368.000000, 20.000000
3256, 56.000000, 368.000000, 20.000000
3257, 60.000000, 368.000000, 20.000000
3258, 64.000000, 368.000000, 20.000000
3259, 68.000000, 368.000000, 20.000000
3260, 72.000000, 368.000000, 20.000000
3261, 36.000000, 372.000000, 20.000000
3262, 40.000000, 372.000000, 20.000000
3263, 44.000000, 372.000000, 20.000000
3264, 48.000000, 372.000000, 20.000000
3265, 52.000000, 372.000000, 20.000000
3266, 56.000000, 372.000000, 20.000000
3267, 60.000000, 372.000000, 20.000000
3268, 64.000000, 372.000000, 20.000000
3269, 68.000000, 372.000000, 20.000000
3270, 72.000000, 372.000000, 20.000000
3271, 36.000000, 376.000000, 20.000000
3272, 40.000000, 376.000000, 20.000000
3273, 44.000000, 376.000000, 20.000000
3274, 48.000000, 376.000000, 20.000000
3275, 52.000000, 376.000000, 20.000000
3276, 56.000000, 376.000000, 20.000000
3277, 60.000000, 376.000000, 20.000000
3278, 64.000000, 376.000000, 20.000000
3279, 68.000000, 376.000000, 20.000000
3280, 72.000000, 376.000000, 20.000000
3281, 36.000000, 380.000000, 20.000000
3282, 40.000000, 380.000000, 20.000000
3283, 44.000000, 380.000000, 20.000000
3284, 48.000000, 380.000000, 20.000000
3285, 52.000000, 380.000000, 20.000000
3286, 56.000000, 380.000000, 20.000000
3287, 60.000000, 380.000000, 20.000000
3288, 64.000000, 380.000000, 20.000000
3289, 68.000000, 380.000000, 20.000000
3290, 72.000000, 380.000000, 20.000000
3291, 36.000000, 384.000000, 20.000000
3292, 40.000000, 384.000000, 20.000000
3293, 44.000000, 384.000000, 20.000000
3294, 48.000000, 384.000000, 20.000000
3295, 52.000000, 384.000000, 20.000000
3296, 56.000000, 384.000000, 20.000000
3297, 60.000000, 384.000000, 20.000000
3298, 64.000000, 384.000000, 20.000000
3299, 68.000000, 384.000000, 20.000000
3300, 72.000000, 384.000000, 20.000000
3301, 36.000000, 388.000000, 20.000000
3302, 40.000000, 388.000000, 20.000000
3303, 44.000000, 388.000000, 20.000000
3304, 48.000000, 388.000000, 20.000000
3305, 52.000000, 388.000000, 20.000000
3306, 56.000000, 388.000000, 20.000000
3307, 60.000000, 388.000000, 20.000000
3308, 64.000000, 388.000000, 20.000000
3309, 68.000000, 388.000000, 20.000000
3310, 72.000000, 388.000000, 20.000000
3311, 36.000000, 392.000000, 20.000000
3312, 40.000000, 392.000000, 20.000000
3313, 44.000000, 392.000000, 20.000000
3314, 48.000000, 392.000000, 20.000000
3315, 52.000000, 392.000000, 20.000000
3316, 56.000000, 392.000000, 20.000000
3317, 60.000000, 392.000000, 20.000000
3318, 64.000000, 392.000000, 20.000000
3319, 68.000000, 392.000000, 20.000000
3320, 72.000000, 392.000000, 20.000000
3321, 36.000000, 396.000000, 20.000000
3322, 40.000000, 396.000000, 20.000000
3323, 44.000000, 396.000000, 20.000000
3324, 48.000000, 396.000000, 20.000000
3325, 52.000000, 396.000000, 20.000000
3326, 56.000000, 396.000000, 20.000000
3327, 60.000000, 396.000000, 20.000000
3328, 64.000000, 396.000000, 20.000000
3329, 68.000000, 396.000000, 20.000000
3330, 72.000000, 396.000000, 20.000000
3331, 36.000000, 400.000000, 20.000000
3332, 40.000000, 400.000000, 20.000000
3333, 44.000000, 400.000000, 20.000000
3334, 48.000000, 400.000000, 20.000000
3335, 52.000000, 400.000000, 20.000000
3336, 56.000000, 400.000000, 20.000000
3337, 60.000000, 400.000000, 20.000000
3338, 64.000000, 400.000000, 20.000000
3339, 68.000000, 400.000000, 20.000000
3340, 72.000000, 400.000000, 20.000000
3341, 36.000000, 404.000000, 20.000000
3342, 40.000000, 404.000000, 20.000000
3343, 44.000000, 404.000000, 20.000000
3344, 48.000000, 404.000000, 20.000000
3345, 52.000000, 404.000000, 20.000000
3346, 56.000000, 404.000000, 20.000000
3347, 60.000000, 404.000000, 20.000000
3348, 64.000000, 404.000000, 20.000000
3349, 68.000000, 404.000000, 20.000000
3350, 72.000000, 404.000000, 20.000000
3351, 36.000000, 408.000000, 20.000000
3352, 40.000000, 408.000000, 20.000000
3353, 44.000000, 408.000000, 20.000000
3354, 48.000000, 408.000000, 20.000000
3355, 52.000000, 408.000000, 20.000000
3356, 56.000000, 408.000000, 20.000000
3357, 60.000000, 408.000000, 20.000000
3358, 64.000000, 408.000000, 20.000000
3359, 68.000000, 408.000000, 20.000000
3360, 72.000000, 408.000000, 20.000000
3361, 36.000000, 412.000000, 20.000000
3362, 40.000000, 412.000000, 20.000000
3363, 44.000000, 412.000000, 20.000000
3364, 48.000000, 412.000000, 20.000000
3365, 52.000000, 412.000000, 20.000000
3366, 56.000000, 412.000000, 20.000000
3367, 60.000000, 412.000000, 20.000000
3368, 64.000000, 412.000000, 20.000000
3369, 68.000000, 412.000000, 20.000000
3370, 72.000000, 412.000000, 20.000000
3371, 36.000000, 416.000000, 20.000000
3372, 40.000000, 416.000000, 20.000000
3373, 44.000000, 416.000000, 20.000000
3374, 48.000000, 416.000000, 20.000000
3375, 52.000000, 416.000000, 20.000000
3376, 56.000000, 416.000000, 20.000000
3377, 60.000000, 416.000000, 20.000000
3378, 64.000000, 416.000000, 20.000000
3379, 68.000000, 416.000000, 20.000000
3380, 72.000000, 416.000000, 20.000000
3381, 36.000000, 420.000000, 20.000000
3382, 40.000000, 420.000000, 20.000000
3383, 44.000000, 420.000000, 20.000000
3384, 48.000000, 420.000000, 20.000000
3385, 52.000000, 420.000000, 20.000000
3386, 56.000000, 420.000000, 20.000000
3387, 60.000000, 420.000000, 20.000000
3388, 64.000000, 420.000000, 20.000000
3389, 68.000000, 420.000000, 20.000000
3390, 72.000000, 420.000000, 20.000000
3391, 36.000000, 424.000000, 20.000000
3392, 40.000000, 424.000000, 20.000000
3393, 44.000000, 424.000000, 20.000000
3394, 48.000000, 424.000000, 20.000000
3395, 52.000000, 424.000000, 20.000000
3396, 56.000000, 424.000000, 20.000000
3397, 60.000000, 424.000000, 20.000000
3398, 64.000000, 424.000000, 20.000000
3399, 68.000000, 424.000000, 20.000000
3400, 72.000000, 424.000000, 20.000000
3401, 36.000000, 428.000000, 20.000000
3402, 40.000000, 428.000000, 20.000000
3403, 44.000000, 428.000000, 20.000000
3404, 48.000000, 428.000000, 20.000000
3405, 52.000000, 428.000000, 20.000000
3406, 56.000000, 428.000000, 20.000000
3407, 60.000000, 428.000000, 20.000000
3408, 64.000000, 428.000000, 20.000000
3409, 68.000000, 428.000000, 20.000000
3410, 72.000000, 428.000000, 20.000000
3411, 36.000000, 432.000000, 20.000000
3412, 40.000000, 432.000000, 20.000000
3413, 44.000000, 432.000000, 20.000000
3414, 48.000000, 432.000000, 20.000000
3415, 52.000000, 432.000000, 20.000000
3416, 56.000000, 432.000000, 20.000000
3417, 60.000000, 432.000000, 20.000000
3418, 64.000000, 432.000000, 20.000000
3419, 68.000000, 432.000000, 20.000000
3420, 72.000000, 432.000000, 20.000000
3421, 36.000000, 436.000000, 20.000000
3422, 40.000000, 436.000000, 20.000000
3423, 44.000000, 436.000000, 20.000000
3424, 48.000000, 436.000000, 20.000000
3425, 52.000000, 436.000000, 20.000000
3426, 56.000000, 436.000000, 20.000000
3427, 60.000000, 436.000000, 20.000000
3428, 64.000000, 436.000000, 20.000000
3429, 68.000000, 436.000000, 20.000000
3430, 72.000000, 436.000000, 20.000000
3431, 36.000000, 440.000000, 20.000000
3432, 40.000000, 440.000000, 20.000000
3433, 44.000000, 440.000000, 20.000000
3434, 48.000000, 440.000000, 20.000000
3435, 52.000000, 440.000000, 20.000000
3436, 56.000000, 440.000000, 20.000000
3437, 60.000000, 440.000000, 20.000000
3438, 64.000000, 440.000000, 20.000000
3439, 68.000000, 440.000000, 20.000000
3440, 72.000000, 440.000000, 20.000000
3441, 36.000000, 444.000000, 20.000000
3442, 40.000000, 444.000000, 20.000000
3443, 44.000000, 444.000000, 20.000000
3444, 48.000000, 444.000000, 20.000000
3445, 52.000000, 444.000000, 20.000000
3446, 56.000000, 444.000000, 20.000000
3447, 60.000000, 444.000000, 20.000000
3448, 64.000000, 444.000000, 20.000000
3449, 68.000000, 444.000000, 20.000000
3450, 72.000000, 444.000000, 20.000000
3451, 36.000000, 448.000000, 20.000000
3452, 40.000000, 448.000000, 20.000000
3453, 44.000000, 448.000000, 20.000000
3454, 48.000000, 448.000000, 20.000000
3455, 52.000000, 448.000000, 20.000000
3456, 56.000000, 448.000000, 20.000000
3457, 60.000000, 448.000000, 20.000000
3458, 64.000000, 448.000000, 20.000000
3459, 68.000000, 448.000000, 20.000000
3460, 72.000000, 448.000000, 20.000000
3461, 36.000000, 452.000000, 20.000000
3462, 40.000000, 452.000000, 20.000000
3463, 44.000000, 452.000000, 20.000000
3464, 48.000000, 452.000000, 20.000000
3465, 52.000000, 452.000000, 20.000000
3466, 56.000000, 452.000000, 20.000000
3467, 60.000000, 452.000000, 20.000000
3468, 64.000000, 452.000000, 20.000000
3469, 68.000000, 452.000000, 20.000000
3470, 72.000000, 452.000000, 20.000000
3471, 36.000000, 456.000000, 20.000000
3472, 40.000000, 456.000000, 20.000000
3473, 44.000000, 456.000000, 20.000000
3474, 48.000000, 456.000000, 20.000000
3475, 52.000000, 456.000000, 20.000000
3476, 56.000000, 456.000000, 20.000000
3477, 60.000000, 456.000000, 20.000000
3478, 64.000000, 456.000000, 20.000000
3479, 68.000000, 456.000000, 20.000000
3480, 72.000000, 456.000000, 20.000000
3481, 36.000000, 228.000000, 24.000000
3482, 40.000000, 228.000000, 24.000000
3483, 44.000000, 228.000000, 24.000000
3484, 48.000000, 228.000000, 24.000000
3485, 52.000000, 228.000000, 24.000000
3486, 56.000000, 228.000000, 24.000000
3487, 60.000000, 228.000000, 24.000000
3488, 64.000000, 228.000000, 24.000000
3489, 68.000000, 228.000000, 24.000000
3490, 72.000000, 228.000000, 24.000000
3491, 36.000000, 232.000000, 24.000000
3492, 40.000000, 232.000000, 24.000000
3493, 44.000000, 232.000000, 24.000000
3494, 48.000000, 232.000000, 24.000000
3495, 52.000000, 232.000000, 24.000000
3496, 56.000000, 232.000000, 24.000000
3497, 60.000000, 232.000000, 24.000000
3498, 64.000000, 232.000000, 24.000000
3499, 68.000000, 232.000000, 24.000000
3500, 72.000000, 232.000000, 24.000000
3501, 36.000000, 236.000000, 24.000000
3502, 40.000000, 236.000000, 24.000000
3503, 44.000000, 236.000000, 24.000000
3504, 48.000000, 236.000000, 24.000000
3505, 52.000000, 236.000000, 24.000000
3506, 56.000000, 236.000000, 24.000000
3507, 60.000000, 236.000000, 24.000000
3508, 64.000000, 236.000000, 24.000000
3509, 68.000000, 236.000000, 24.000000
3510, 72.000000, 236.000000, 24.000000
3511, 36.000000, 240.000000, 24.000000
3512, 40.000000, 240.000000, 24.000000
3513, 44.000000, 240.000000, 24.000000
3514, 48.000000, 240.000000, 24.000000
3515, 52.000000, 240.000000, 24.000000
3516, 56.000000, 240.000000, 24.000000
3517, 60.000000, 240.000000, 24.000000
3518, 64.000000, 240.000000, 24.000000
3519, 68.000000, 240.000000, 24.000000
3520, 72.000000, 240.000000, 24.000000
3521, 36.000000, 244.000000, 24.000000
3522, 40.000000, 244.000000, 24.000000
3523, 44.000000, 244.000000, 24.000000
3524, 48.000000, 244.000000, 24.000000
3525, 52.000000, 244.000000, 24.000000
3526, 56.000000, 244.000000, 24.000000
3527, 60.000000, 244.000000, 24.000000
3528, 64.000000, 244.000000, 24.000000
3529, 68.000000, 244.000000, 24.000000
3530, 72.000000, 244.000000, 24.000000
3531, 36.000000, 248.000000, 24.000000
3532, 40.000000, 248.000000, 24.000000
3533, 44.000000, 248.000000, 24.000000
3534, 48.000000, 248.000000, 24.000000
3535, 52.000000, 248.000000, 24.000000
3536, 56.000000, 248.000000, 24.000000
3537, 60.000000, 248.000000, 24.000000
3538, 64.000000, 248.000000, 24.000000
3539, 68.000000, 248.000000, 24.000000
3540, 72.000000, 248.000000, 24.000000
3541, 36.000000, 252.000000, 24.000000
3542, 40.000000, 252.000000, 24.000000
3543, 44.000000, 252.000000, 24.000000
3544, 48.000000, 252.000000, 24.000000
3545, 52.000000, 252.000000, 24.000000
3546, 56.000000, 252.000000, 24.000000
3547, 60.000000, 252.000000, 24.000000
3548, 64.000000, 252.000000, 24.000000
3549, 68.000000, 252.000000, 24.000000
3550, 72.000000, 252.000000, 24.000000
3551, 36.000000, 256.000000, 24.000000
3552, 40.000000, 256.000000, 24.000000
3553, 44.000000, 256.000000, 24.000000
3554, 48.000000, 256.000000, 24.000000
3555, 52.000000, 256.000000, 24.000000
3556, 56.000000, 256.000000, 24.000000
3557, 60.000000, 256.000000, 24.000000
3558, 64.000000, 256.000000, 24.000000
3559, 68.000000, 256.000000, 24.000000
3560, 72.000000, 256.000000, 24.000000
3561, 36.000000, 260.000000, 24.000000
3562, 40.000000, 260.000000, 24.000000
3563, 44.000000, 260.000000, 24.000000
3564, 48.000000, 260.000000, 24.000000
3565, 52.000000, 260.000000, 24.000000
3566, 56.000000, 260.000000, 24.000000
3567, 60.000000, 260.000000, 24.000000
3568, 64.000000, 260.000000, 24.000000
3569, 68.000000, 260.000000, 24.000000
3570, 72.000000, 260.000000, 24.000000
3571, 36.000000, 264.000000, 24.000000
3572, 40.000000, 264.000000, 24.000000
3573, 44.000000, 264.000000, 24.000000
3574, 48.000000, 264.000000, 24.000000
3575, 52.000000, 264.000000, 24.000000
3576, 56.000000, 264.000000, 24.000000
3577, 60.000000, 264.000000, 24.000000
3578, 64.000000, 264.000000, 24.000000
3579, 68.000000, 264.000000, 24.000000
3580, 72.000000, 264.000000, 24.000000
3581, 36.000000, 268.000000, 24.000000
3582, 40.000000, 268.000000, 24.000000
3583, 44.000000, 268.000000, 24.000000
3584, 48.000000, 268.000000, 24.000000
3585, 52.000000, 268.000000, 24.000000
3586, 56.000000, 268.000000, 24.000000
3587, 60.000000, 268.000000, 24.000000
3588, 64.000000, 268.000000, 24.000000
3589, 68.000000, 268.000000, 24.000000
3590, 72.000000, 268.000000, 24.000000
3591, 36.000000, 272.000000, 24.000000
3592, 40.000000, 272.000000, 24.000000
3593, 44.000000, 272.000000, 24.000000
3594, 48.000000, 272.000000, 24.000000
3595, 52.000000, 272.000000, 24.000000
3596, 56.000000, 272.000000, 24.000000
3597, 60.000000, 272.000000, 24.000000
3598, 64.000000, 272.000000, 24.000000
3599, 68.000000, 272.000000, 24.000000
3600, 72.000000, 272.000000, 24.000000
3601, 36.000000, 276.000000, 24.000000
3602, 40.000000, 276.000000, 24.000000
3603, 44.000000, 276.000000, 24.000000
3604, 48.000000, 276.000000, 24.000000
3605, 52.000000, 276.000000, 24.000000
3606, 56.000000, 276.000000, 24.000000
3607, 60.000000, 276.000000, 24.000000
3608, 64.000000, 276.000000, 24.000000
3609, 68.000000, 276.000000, 24.000000
3610, 72.000000, 276.000000, 24.000000
3611, 36.000000, 280.000000, 24.000000
3612, 40.000000, 280.000000, 24.000000
3613, 44.000000, 280.000000, 24.000000
3614, 48.000000, 280.000000, 24.000000
3615, 52.000000, 280.000000, 24.000000
3616, 56.000000, 280.000000, 24.000000
3617, 60.000000, 280.000000, 24.000000
3618, 64.000000, 280.000000, 24.000000
3619, 68.000000, 280.000000, 24.000000
3620, 72.000000, 280.000000, 24.000000
3621, 36.000000, 284.000000, 24.000000
3622, 40.000000, 284.000000, 24.000000
3623, 44.000000, 284.000000, 24.000000
3624, 48.000000, 284.000000, 24.000000
3625, 52.000000, 284.000000, 24.000000
3626, 56.000000, 284.000000, 24.000000
3627, 60.000000, 284.000000, 24.000000
3628, 64.000000, 284.000000, 24.000000
3629, 68.000000, 284.000000, 24.000000
3630, 72.000000, 284.000000, 24.000000
3631, 36.000000, 288.000000, 24.000000
3632, 40.000000, 288.000000, 24.000000
3633, 44.000000, 288.000000, 24.000000
3634, 48.000000, 288.000000, 24.000000
3635, 52.000000, 288.000000, 24.000000
3636, 56.000000, 288.000000, 24.000000
3637, 60.000000, 288.000000, 24.000000
3638, 64.000000, 288.000000, 24.000000
3639, 68.000000, 288.000000, 24.000000
3640, 72.000000, 288.000000, 24.000000
3641, 36.000000, 292.000000, 24.000000
3642, 40.000000, 292.000000, 24.000000
3643, 44.000000, 292.000000, 24.000000
3644, 48.000000, 292.000000, 24.000000
3645, 52.000000, 292.000000, 24.000000
3646, 56.000000, 292.000000, 24.000000
3647, 60.000000, 292.000000, 24.000000
3648, 64.000000, 292.000000, 24.000000
3649, 68.000000, 292.000000, 24.000000
3650, 72.000000, 292.000000, 24.000000
3651, 36.000000, 296.000000, 24.000000
3652, 40.000000, 296.000000, 24.000000
3653, 44.000000, 296.000000, 24.000000
3654, 48.000000, 296.000000, 24.000000
3655, 52.000000, 296.000000, 24.000000
3656, 56.000000, 296.000000, 24.000000
3657, 60.000000, 296.000000, 24.000000
3658, 64.000000, 296.000000, 24.000000
3659, 68.000000, 296.000000, 24.000000
3660, 72.000000, 296.000000, 24.000000
3661, 36.000000, 300.000000, 24.000000
3662, 40.000000, 300.000000, 24.000000
3663, 44.000000, 300.000000, 24.000000
3664, 48.000000, 300.000000, 24.000000
3665, 52.000000, 300.000000, 24.000000
3666, 56.000000, 300.000000, 24.000000
3667, 60.000000, 300.000000, 24.000000
3668, 64.000000, 300.000000, 24.000000
3669, 68.000000, 300.000000, 24.000000
3670, 72.000000, 300.000000, 24.000000
3671, 36.000000, 304.000000, 24.000000
3672, 40.000000, 304.000000, 24.000000
3673, 44.000000, 304.000000, 24.000000
3674, 48.000000, 304.000000, 24.000000
3675, 52.000000, 304.000000, 24.000000
3676, 56.000000, 304.000000, 24.000000
3677, 60.000000, 304.000000, 24.000000
3678, 64.000000, 304.000000, 24.000000
3679, 68.000000, 304.000000, 24.000000
3680, 72.000000, 304.000000, 24.000000
3681, 36.000000, 308.000000, 24.000000
3682, 40.000000, 308.000000, 24.000000
3683, 44.000000, 308.000000, 24.000000
3684, 48.000000, 308.000000, 24.000000
3685, 52.000000, 308.000000, 24.000000
3686, 56.000000, 308.000000, 24.000000
3687, 60.000000, 308.000000, 24.000000
3688, 64.000000, 308.000000, 24.000000
3689, 68.000000, 308.000000, 24.000000
3690, 72.000000, 308.000000, 24.000000
3691, 36.000000, 312.000000, 24.000000
3692, 40.000000, 312.000000, 24.000000
3693, 44.000000, 312.000000, 24.000000
3694, 48.000000, 312.000000, 24.000000
3695, 52.000000, 312.000000, 24.000000
3696, 56.000000, 312.000000, 24.000000
3697, 60.000000, 312.000000, 24.000000
3698, 64.000000, 312.000000, 24.000000
3699, 68.000000, 312.000000, 24.000000
3700, 72.000000, 312.000000, 24.000000
3701, 36.000000, 316.000000, 24.000000
3702, 40.000000, 316.000000, 24.000000
3703, 44.000000, 316.000000, 24.000000
3704, 48.000000, 316.000000, 24.000000
3705, 52.000000, 316.000000, 24.000000
3706, 56.000000, 316.000000, 24.000000
3707, 60.000000, 316.000000, 24.000000
3708, 64.000000, 316.000000, 24.000000
3709, 68.000000, 316.000000, 24.000000
3710, 72.000000, 316.000000, 24.000000
3711, 36.000000, 320.000000, 24.000000
3712, 40.000000, 320.000000, 24.000000
3713, 44.000000, 320.000000, 24.000000
3714, 48.000000, 320.000000, 24.000000
3715, 52.000000, 320.000000, 24.000000
3716, 56.000000, 320.000000, 24.000000
3717, 60.000000, 320.000000, 24.000000
3718, 64.000000, 320.000000, 24.000000
3719, 68.000000, 320.000000, 24.000000
3720, 72.000000, 320.000000, 24.000000
3721, 36.000000, 324.000000, 24.000000
3722, 40.000000, 324.000000, 24.000000
3723, 44.000000, 324.000000, 24.000000
3724, 48.000000, 324.000000, 24.000000
3725, 52.000000, 324.000000, 24.000000
3726, 56.000000, 324.000000, 24.000000
3727, 60.000000, 324.000000, 24.000000
3728, 64.000000, 324.000000, 24.000000
3729, 68.000000, 324.000000, 24.000000
3730, 72.000000, 324.000000, 24.000000
3731, 36.000000, 328.000000, 24.000000
3732, 40.000000, 328.000000, 24.000000
3733, 44.000000, 328.000000, 24.000000
3734, 48.000000, 328.000000, 24.000000
3735, 52.000000, 328.000000, 24.000000
3736, 56.000000, 328.000000, 24.000000
3737, 60.000000, 328.000000, 24.000000
3738, 64.000000, 328.000000, 24.000000
3739, 68.000000, 328.000000, 24.000000
3740, 72.000000, 328.000000, 24.000000
3741, 36.000000, 332.000000, 24.000000
3742, 40.000000, 332.000000, 24.000000
3743, 44.000000, 332.000000, 24.000000
3744, 48.000000, 332.000000, 24.000000
3745, 52.000000, 332.000000, 24.000000
3746, 56.000000, 332.000000, 24.000000
3747, 60.000000, 332.000000, 24.000000
3748, 64.000000, 332.000000, 24.000000
3749, 68.000000, 332.000000, 24.000000
3750, 72.000000, 332.000000, 24.000000
3751, 36.000000, 336.000000, 24.000000
3752, 40.000000, 336.000000, 24.000000
3753, 44.000000, 336.000000, 24.000000
3754, 48.000000, 336.000000, 24.000000
3755, 52.000000, 336.000000, 24.000000
3756, 56.000000, 336.000000, 24.000000
3757, 60.000000, 336.000000, 24.000000
3758, 64.000000, 336.000000, 24.000000
3759, 68.000000, 336.000000, 24.000000
3760, 72.000000, 336.000000, 24.000000
3761, 36.000000, 340.000000, 24.000000
3762, 40.000000, 340.000000, 24.000000
3763, 44.000000, 340.000000, 24.000000
3764, 48.000000, 340.000000, 24.000000
3765, 52.000000, 340.000000, 24.000000
3766, 56.000000, 340.000000, 24.000000
3767, 60.000000, 340.000000, 24.000000
3768, 64.000000, 340.000000, 24.000000
3769, 68.000000, 340.000000, 24.000000
3770, 72.000000, 340.000000, 24.000000
3771, 36.000000, 344.000000, 24.000000
3772, 40.000000, 344.000000, 24.000000
3773, 44.000000, 344.000000, 24.000000
3774, 48.000000, 344.000000, 24.000000
3775, 52.000000, 344.000000, 24.000000
3776, 56.000000, 344.000000, 24.000000
3777, 60.000000, 344.000000, 24.000000
3778, 64.000000, 344.000000, 24.000000
3779, 68.000000, 344.000000, 24.000000
3780, 72.000000, 344.000000, 24.000000
3781, 36.000000, 348.000000, 24.000000
3782, 40.000000, 348.000000, 24.000000
3783, 44.000000, 348.000000, 24.000000
3784, 48.000000, 348.000000, 24.000000
3785, 52.000000, 348.000000, 24.000000
3786, 56.000000, 348.000000, 24.000000
3787, 60.000000, 348.000000, 24.000000
3788, 64.000000, 348.000000, 24.000000
3789, 68.000000, 348.000000, 24.000000
3790, 72.000000, 348.000000, 24.000000
3791, 36.000000, 352.000000, 24.000000
3792, 40.000000, 352.000000, 24.000000
3793, 44.000000, 352.000000, 24.000000
3794, 48.000000, 352.000000, 24.000000
3795, 52.000000, 352.000000, 24.000000
3796, 56.000000, 352.000000, 24.000000
3797, 60.000000, 352.000000, 24.000000
3798, 64.000000, 352.000000, 24.000000
3799, 68.000000, 352.000000, 24.000000
3800, 72.000000, 352.000000, 24.000000
3801, 36.000000, 356.000000, 24.000000
3802, 40.000000, 356.000000, 24.000000
3803, 44.000000, 356.000000, 24.000000
3804, 48.000000, 356.000000, 24.000000
3805, 52.000000, 356.000000, 24.000000
3806, 56.000000, 356.000000, 24.000000
3807, 60.000000, 356.000000, 24.000000
3808, 64.000000, 356.000000, 24.000000
3809, 68.000000, 356.000000, 24.000000
3810, 72.000000, 356.000000, 24.000000
3811, 36.000000, 360.000000, 24.000000
3812, 40.000000, 360.000000, 24.000000
3813, 44.000000, 360.000000, 24.000000
3814, 48.000000, 360.000000, 24.000000
3815, 52.000000, 360.000000, 24.000000
3816, 56.000000, 360.000000, 24.000000
3817, 60.000000, 360.000000, 24.000000
3818, 64.000000, 360.000000, 24.000000
3819, 68.000000, 360.000000, 24.000000
3820, 72.000000, 360.000000, 24.000000
3821, 36.000000, 364.000000, 24.000000
3822, 40.000000, 364.000000, 24.000000
3823, 44.000000, 364.000000, 24.000000
3824, 48.000000, 364.000000, 24.000000
3825, 52.000000, 364.000000, 24.000000
3826, 56.000000, 364.000000, 24.000000
3827, 60.000000, 364.000000, 24.000000
3828, 64.000000, 364.000000, 24.000000
3829, 68.000000, 364.000000, 24.000000
3830, 72.000000, 364.000000, 24.000000
3831, 36.000000, 368.000000, 24.000000
3832, 40.000000, 368.000000, 24.000000
3833, 44.000000, 368.000000, 24.000000
3834, 48.000000, 368.000000, 24.000000
3835, 52.000000, 368.000000, 24.000000
3836, 56.000000, 368.000000, 24.000000
3837, 60.000000, 368.000000, 24.000000
3838, 64.000000, 368.000000, 24.000000
3839, 68.000000, 368.000000, 24.000000
3840, 72.000000, 368.000000, 24.000000
3841, 36.000000, 372.000000, 24.000000
3842, 40.000000, 372.000000, 24.000000
3843, 44.000000, 372.000000, 24.000000
3844, 48.000000, 372.000000, 24.000000
3845, 52.000000, 372.000000, 24.000000
3846, 56.000000, 372.000000, 24.000000
3847, 60.000000, 372.000000, 24.000000
3848, 64.000000, 372.000000, 24.000000
3849, 68.000000, 372.000000, 24.000000
3850, 72.000000, 372.000000, 24.000000
3851, 36.000000, 376.000000, 24.000000
3852, 40.000000, 376.000000, 24.000000
3853, 44.000000, 376.000000, 24.000000
3854, 48.000000, 376.000000, 24.000000
3855, 52.000000, 376.000000, 24.000000
3856, 56.000000, 376.000000, 24.000000
3857, 60.000000, 376.000000, 24.000000
3858, 64.000000, 376.000000, 24.000000
3859, 68.000000, 376.000000, 24.000000
3860, 72.000000, 376.000000, 24.000000
3861, 36.000000, 380.000000, 24.000000
3862, 40.000000, 380.000000, 24.000000
3863, 44.000000, 380.000000, 24.000000
3864, 48.000000, 380.000000, 24.000000
3865, 52.000000, 380.000000, 24.000000
3866, 56.000000, 380.000000, 24.000000
3867, 60.000000, 380.000000, 24.000000
3868, 64.000000, 380.000000, 24.000000
3869, 68.000000, 380.000000, 24.000000
3870, 72.000000, 380.000000, 24.000000
3871, 36.000000, 384.000000, 24.000000
3872, 40.000000, 384.000000, 24.000000
3873, 44.000000, 384.000000, 24.000000
3874, 48.000000, 384.000000, 24.000000
3875, 52.000000, 384.000000, 24.000000
3876, 56.000000, 384.000000, 24.000000
3877, 60.000000, 384.000000, 24.000000
3878, 64.000000, 384.000000, 24.000000
3879, 68.000000, 384.000000, 24.000000
3880, 72.000000, 384.000000, 24.000000
3881, 36.000000, 388.000000, 24.000000
3882, 40.000000, 388.000000, 24.000000
3883, 44.000000, 388.000000, 24.000000
3884, 48.000000, 388.000000, 24.000000
3885, 52.000000, 388.000000, 24.000000
3886, 56.000000, 388.000000, 24.000000
3887, 60.000000, 388.000000, 24.000000
3888, 64.000000, 388.000000, 24.000000
3889, 68.000000, 388.000000, 24.000000
3890, 72.000000, 388.000000, 24.000000
3891, 36.000000, 392.000000, 24.000000
3892, 40.000000, 392.000000, 24.000000
3893, 44.000000, 392.000000, 24.000000
3894, 48.000000, 392.000000, 24.000000
3895, 52.000000, 392.000000, 24.000000
3896, 56.000000, 392.000000, 24.000000
3897, 60.000000, 392.000000, 24.000000
3898, 64.000000, 392.000000, 24.000000
3899, 68.000000, 392.000000, 24.000000
3900, 72.000000, 392.000000, 24.000000
3901, 36.000000, 396.000000, 24.000000
3902, 40.000000, 396.000000, 24.000000
3903, 44.000000, 396.000000, 24.000000
3904, 48.000000, 396.000000, 24.000000
3905, 52.000000, 396.000000, 24.000000
3906, 56.000000, 396.000000, 24.000000
3907, 60.000000, 396.000000, 24.000000
3908, 64.000000, 396.000000, 24.000000
3909, 68.000000, 396.000000, 24.000000
3910, 72.000000, 396.000000, 24.000000
3911, 36.000000, 400.000000, 24.000000
3912, 40.000000, 400.000000, 24.000000
3913, 44.000000, 400.000000, 24.000000
3914, 48.000000, 400.000000, 24.000000
3915, 52.000000, 400.000000, 24.000000
3916, 56.000000, 400.000000, 24.000000
3917, 60.000000, 400.000000, 24.000000
3918, 64.000000, 400.000000, 24.000000
3919, 68.000000, 400.000000, 24.000000
3920, 72.000000, 400.000000, 24.000000
3921, 36.000000, 404.000000, 24.000000
3922, 40.000000, 404.000000, 24.000000
3923, 44.000000, 404.000000, 24.000000
3924, 48.000000, 404.000000, 24.000000
3925, 52.000000, 404.000000, 24.000000
3926, 56.000000, 404.000000, 24.000000
3927, 60.000000, 404.000000, 24.000000
3928, 64.000000, 404.000000, 24.000000
3929, 68.000000, 404.000000, 24.000000
3930, 72.000000, 404.000000, 24.000000
3931, 36.000000, 408.000000, 24.000000
3932, 40.000000, 408.000000, 24.000000
3933, 44.000000, 408.000000, 24.000000
3934, 48.000000, 408.000000, 24.000000
3935, 52.000000, 408.000000, 24.000000
3936, 56.000000, 408.000000, 24.000000
3937, 60.000000, 408.000000, 24.000000
3938, 64.000000, 408.000000, 24.000000
3939, 68.000000, 408.000000, 24.000000
3940, 72.000000, 408.000000, 24.000000
3941, 36.000000, 412.000000, 24.000000
3942, 40.000000, 412.000000, 24.000000
3943, 44.000000, 412.000000, 24.000000
3944, 48.000000, 412.000000, 24.000000
3945, 52.000000, 412.000000, 24.000000
3946, 56.000000, 412.000000, 24.000000
3947, 60.000000, 412.000000, 24.000000
3948, 64.000000, 412.000000, 24.000000
3949, 68.000000, 412.000000, 24.000000
3950, 72.000000, 412.000000, 24.000000
3951, 36.000000, 416.000000, 24.000000
3952, 40.000000, 416.000000, 24.000000
3953, 44.000000, 416.000000, 24.000000
3954, 48.000000, 416.000000, 24.000000
3955, 52.000000, 416.000000, 24.000000
3956, 56.000000, 416.000000, 24.000000
3957, 60.000000, 416.000000, 24.000000
3958, 64.000000, 416.000000, 24.000000
3959, 68.000000, 416.000000, 24.000000
3960, 72.000000, 416.000000, 24.000000
3961, 36.000000, 420.000000, 24.000000
3962, 40.000000, 420.000000, 24.000000
3963, 44.000000, 420.000000, 24.000000
3964, 48.000000, 420.000000, 24.000000
3965, 52.000000, 420.000000, 24.000000
3966, 56.000000, 420.000000, 24.000000
3967, 60.000000, 420.000000, 24.000000
3968, 64.000000, 420.000000, 24.000000
3969, 68.000000, 420.000000, 24.000000
3970, 72.000000, 420.000000, 24.000000
3971, 36.000000, 424.000000, 24.000000
3972, 40.000000, 424.000000, 24.000000
3973, 44.000000, 424.000000, 24.000000
3974, 48.000000, 424.000000, 24.000000
3975, 52.000000, 424.000000, 24.000000
3976, 56.000000, 424.000000, 24.000000
3977, 60.000000, 424.000000, 24.000000
3978, 64.000000, 424.000000, 24.000000
3979, 68.000000, 424.000000, 24.000000
3980, 72.000000, 424.000000, 24.000000
3981, 36.000000, 428.000000, 24.000000
3982, 40.000000, 428.000000, 24.000000
3983, 44.000000, 428.000000, 24.000000
3984, 48.000000, 428.000000, 24.000000
3985, 52.000000, 428.000000, 24.000000
3986, 56.000000, 428.000000, 24.000000
3987, 60.000000, 428.000000, 24.000000
3988, 64.000000, 428.000000, 24.000000
3989, 68.000000, 428.000000, 24.000000
3990, 72.000000, 428.000000, 24.000000
3991, 36.000000, 432.000000, 24.000000
3992, 40.000000, 432.000000, 24.000000
3993, 44.000000, 432.000000, 24.000000
3994, 48.000000, 432.000000, 24.000000
3995, 52.000000, 432.000000, 24.000000
3996, 56.000000, 432.000000, 24.000000
3997, 60.000000, 432.000000, 24.000000
3998, 64.000000, 432.000000, 24.000000
3999, 68.000000, 432.000000, 24.000000
4000, 72.000000, 432.000000, 24.000000
4001, 36.000000, 436.000000, 24.000000
4002, 40.000000, 436.000000, 24.000000
4003, 44.000000, 436.000000, 24.000000
4004, 48.000000, 436.000000, 24.000000
4005, 52.000000, 436.000000, 24.000000
4006, 56.000000, 436.000000, 24.000000
4007, 60.000000, 436.000000, 24.000000
4008, 64.000000, 436.000000, 24.000000
4009, 68.000000, 436.000000, 24.000000
4010, 72.000000, 436.000000, 24.000000
4011, 36.000000, 440.000000, 24.000000
4012, 40.000000, 440.000000, 24.000000
4013, 44.000000, 440.000000, 24.000000
4014, 48.000000, 440.000000, 24.000000
4015, 52.000000, 440.000000, 24.000000
4016, 56.000000, 440.000000, 24.000000
4017, 60.000000, 440.000000, 24.000000
4018, 64.000000, 440.000000, 24.000000
4019, 68.000000, 440.000000, 24.000000
4020, 72.000000, 440.000000, 24.000000
4021, 36.000000, 444.000000, 24.000000
4022, 40.000000, 444.000000, 24.000000
4023, 44.000000, 444.000000, 24.000000
4024, 48.000000, 444.000000, 24.000000
4025, 52.000000, 444.000000, 24.000000
4026, 56.000000, 444.000000, 24.000000
4027, 60.000000, 444.000000, 24.000000
4028, 64.000000, 444.000000, 24.000000
4029, 68.000000, 444.000000, 24.000000
4030, 72.000000, 444.000000, 24.000000
4031, 36.000000, 448.000000, 24.000000
4032, 40.000000, 448.000000, 24.000000
4033, 44.000000, 448.000000, 24.000000
4034, 48.000000, 448.000000, 24.000000
4035, 52.000000, 448.000000, 24.000000
4036, 56.000000, 448.000000, 24.000000
4037, 60.000000, 448.000000, 24.000000
4038, 64.000000, 448.000000, 24.000000
4039, 68.000000, 448.000000, 24.000000
4040, 72.000000, 448.000000, 24.000000
4041, 36.000000, 452.000000, 24.000000
4042, 40.000000, 452.000000, 24.000000
4043, 44.000000, 452.000000, 24.000000
4044, 48.000000, 452.000000, 24.000000
4045, 52.000000, 452.000000, 24.000000
4046, 56.000000, 452.000000, 24.000000
4047, 60.000000, 452.000000, 24.000000
4048, 64.000000, 452.000000, 24.000000
4049, 68.000000, 452.000000, 24.000000
4050, 72.000000, 452.000000, 24.000000
4051, 36.000000, 456.000000, 24.000000
4052, 40.000000, 456.000000, 24.000000
4053, 44.000000, 456.000000, 24.000000
4054, 48.000000, 456.000000, 24.000000
4055, 52.000000, 456.000000, 24.000000
4056, 56.000000, 456.000000, 24.000000
4057, 60.000000, 456.000000, 24.000000
4058, 64.000000, 456.000000, 24.000000
4059, 68.000000, 456.000000, 24.000000
4060, 72.000000, 456.000000, 24.000000
4061, 36.000000, 228.000000, 28.000000
4062, 40.000000, 228.000000, 28.000000
4063, 44.000000, 228.000000, 28.000000
4064, 48.000000, 228.000000, 28.000000
4065, 52.000000, 228.000000, 28.000000
4066, 56.000000, 228.000000, 28.000000
4067, 60.000000, 228.000000, 28.000000
4068, 64.000000, 228.000000, 28.000000
4069, 68.000000, 228.000000, 28.000000
4070, 72.000000, 228.000000, 28.000000
4071, 36.000000, 232.000000, 28.000000
4072, 40.000000, 232.000000, 28.000000
4073, 44.000000, 232.000000, 28.000000
4074, 48.000000, 232.000000, 28.000000
4075, 52.000000, 232.000000, 28.000000
4076, 56.000000, 232.000000, 28.000000
4077, 60.000000, 232.000000, 28.000000
4078, 64.000000, 232.000000, 28.000000
4079, 68.000000, 232.000000, 28.000000
4080, 72.000000, 232.000000, 28.000000
4081, 36.000000, 236.000000, 28.000000
4082, 40.000000, 236.000000, 28.000000
4083, 44.000000, 236.000000, 28.000000
4084, 48.000000, 236.000000, 28.000000
4085, 52.000000, 236.000000, 28.000000
4086, 56.000000, 236.000000, 28.000000
4087, 60.000000, 236.000000, 28.000000
4088, 64.000000, 236.000000, 28.000000
4089, 68.000000, 236.000000, 28.000000
4090, 72.000000, 236.000000, 28.000000
4091, 36.000000, 240.000000, 28.000000
4092, 40.000000, 240.000000, 28.000000
4093, 44.000000, 240.000000, 28.000000
4094, 48.000000, 240.000000, 28.000000
4095, 52.000000, 240.000000, 28.000000
4096, 56.000000, 240.000000, 28.000000
4097, 60.000000, 240.000000, 28.000000
4098, 64.000000, 240.000000, 28.000000
4099, 68.000000, 240.000000, 28.000000
4100, 72.000000, 240.000000, 28.000000
4101, 36.000000, 244.000000, 28.000000
4102, 40.000000, 244.000000, 28.000000
4103, 44.000000, 244.000000, 28.000000
4104, 48.000000, 244.000000, 28.000000
4105, 52.000000, 244.000000, 28.000000
4106, 56.000000, 244.000000, 28.000000
4107, 60.000000, 244.000000, 28.000000
4108, 64.000000, 244.000000, 28.000000
4109, 68.000000, 244.000000, 28.000000
4110, 72.000000, 244.000000, 28.000000
4111, 36.000000, 248.000000, 28.000000
4112, 40.000000, 248.000000, 28.000000
4113, 44.000000, 248.000000, 28.000000
4114, 48.000000, 248.000000, 28.000000
4115, 52.000000, 248.000000, 28.000000
4116, 56.000000, 248.000000, 28.000000
4117, 60.000000, 248.000000, 28.000000
4118, 64.000000, 248.000000, 28.000000
4119, 68.000000, 248.000000, 28.000000
4120, 72.000000, 248.000000, 28.000000
4121, 36.000000, 252.000000, 28.000000
4122, 40.000000, 252.000000, 28.000000
4123, 44.000000, 252.000000, 28.000000
4124, 48.000000, 252.000000, 28.000000
4125, 52.000000, 252.000000, 28.000000
4126, 56.000000, 252.000000, 28.000000
4127, 60.000000, 252.000000, 28.000000
4128, 64.000000, 252.000000, 28.000000
4129, 68.000000, 252.000000, 28.000000
4130, 72.000000, 252.000000, 28.000000
4131, 36.000000, 256.000000, 28.000000
4132, 40.000000, 256.000000, 28.000000
4133, 44.000000, 256.000000, 28.000000
4134, 48.000000, 256.000000, 28.000000
4135, 52.000000, 256.000000, 28.000000
4136, 56.000000, 256.000000, 28.000000
4137, 60.000000, 256.000000, 28.000000
4138, 64.000000, 256.000000, 28.000000
4139, 68.000000, 256.000000, 28.000000
4140, 72.000000, 256.000000, 28.000000
4141, 36.000000, 260.000000, 28.000000
4142, 40.000000, 260.000000, 28.000000
4143, 44.000000, 260.000000, 28.000000
4144, 48.000000, 260.000000, 28.000000
4145, 52.000000, 260.000000, 28.000000
4146, 56.000000, 260.000000, 28.000000
4147, 60.000000, 260.000000, 28.000000
4148, 64.000000, 260.000000, 28.000000
4149, 68.000000, 260.000000, 28.000000
4150, 72.000000, 260.000000, 28.000000
4151, 36.000000, 264.000000, 28.000000
4152, 40.000000, 264.000000, 28.000000
4153, 44.000000, 264.000000, 28.000000
4154, 48.000000, 264.000000, 28.000000
4155, 52.000000, 264.000000, 28.000000
4156, 56.000000, 264.000000, 28.000000
4157, 60.000000, 264.000000, 28.000000
4158, 64.000000, 264.000000, 28.000000
4159, 68.000000, 264.000000, 28.000000
4160, 72.000000, 264.000000, 28.000000
4161, 36.000000, 268.000000, 28.000000
4162, 40.000000, 268.000000, 28.000000
4163, 44.000000, 268.000000, 28.000000
4164, 48.000000, 268.000000, 28.000000
4165, 52.000000, 268.000000, 28.000000
4166, 56.000000, 268.000000, 28.000000
4167, 60.000000, 268.000000, 28.000000
4168, 64.000000, 268.000000, 28.000000
4169, 68.000000, 268.000000, 28.000000
4170, 72.000000, 268.000000, 28.000000
4171, 36.000000, 272.000000, 28.000000
4172, 40.000000, 272.000000, 28.000000
4173, 44.000000, 272.000000, 28.000000
4174, 48.000000, 272.000000, 28.000000
4175, 52.000000, 272.000000, 28.000000
4176, 56.000000, 272.000000, 28.000000
4177, 60.000000, 272.000000, 28.000000
4178, 64.000000, 272.000000, 28.000000
4179, 68.000000, 272.000000, 28.000000
4180, 72.000000, 272.000000, 28.000000
4181, 36.000000, 276.000000, 28.000000
4182, 40.000000, 276.000000, 28.000000
4183, 44.000000, 276.000000, 28.000000
4184, 48.000000, 276.000000, 28.000000
4185, 52.000000, 276.000000, 28.000000
4186, 56.000000, 276.000000, 28.000000
4187, 60.000000, 276.000000, 28.000000
4188, 64.000000, 276.000000, 28.000000
4189, 68.000000, 276.000000, 28.000000
4190, 72.000000, 276.000000, 28.000000
4191, 36.000000, 280.000000, 28.000000
4192, 40.000000, 280.000000, 28.000000
4193, 44.000000, 280.000000, 28.000000
4194, 48.000000, 280.000000, 28.000000
4195, 52.000000, 280.000000, 28.000000
4196, 56.000000, 280.000000, 28.000000
4197, 60.000000, 280.000000, 28.000000
4198, 64.000000, 280.000000, 28.000000
4199, 68.000000, 280.000000, 28.000000
4200, 72.000000, 280.000000, 28.000000
4201, 36.000000, 284.000000, 28.000000
4202, 40.000000, 284.000000, 28.000000
4203, 44.000000, 284.000000, 28.000000
4204, 48.000000, 284.000000, 28.000000
4205, 52.000000, 284.000000, 28.000000
4206, 56.000000, 284.000000, 28.000000
4207, 60.000000, 284.000000, 28.000000
4208, 64.000000, 284.000000, 28.000000
4209, 68.000000, 284.000000, 28.000000
4210, 72.000000, 284.000000, 28.000000
4211, 36.000000, 288.000000, 28.000000
4212, 40.000000, 288.000000, 28.000000
4213, 44.000000, 288.000000, 28.000000
4214, 48.000000, 288.000000, 28.000000
4215, 52.000000, 288.000000, 28.000000
4216, 56.000000, 288.000000, 28.000000
4217, 60.000000, 288.000000, 28.000000
4218, 64.000000, 288.000000, 28.000000
4219, 68.000000, 288.000000, 28.000000
4220, 72.000000, 288.000000, 28.000000
4221, 36.000000, 292.000000, 28.000000
4222, 40.000000, 292.000000, 28.000000
4223, 44.000000, 292.000000, 28.000000
4224, 48.000000, 292.000000, 28.000000
4225, 52.000000, 292.000000, 28.000000
4226, 56.000000, 292.000000, 28.000000
4227, 60.000000, 292.000000, 28.000000
4228, 64.000000, 292.000000, 28.000000
4229, 68.000000, 292.000000, 28.000000
4230, 72.000000, 292.000000, 28.000000
4231, 36.000000, 296.000000, 28.000000
4232, 40.000000, 296.000000, 28.000000
4233, 44.000000, 296.000000, 28.000000
4234, 48.000000, 296.000000, 28.000000
4235, 52.000000, 296.000000, 28.000000
4236, 56.000000, 296.000000, 28.000000
4237, 60.000000, 296.000000, 28.000000
4238, 64.000000, 296.000000, 28.000000
4239, 68.000000, 296.000000, 28.000000
4240, 72.000000, 296.000000, 28.000000
4241, 36.000000, 300.000000, 28.000000
4242, 40.000000, 300.000000, 28.000000
4243, 44.000000, 300.000000, 28.000000
4244, 48.000000, 300.000000, 28.000000
4245, 52.000000, 300.000000, 28.000000
4246, 56.000000, 300.000000, 28.000000
4247, 60.000000, 300.000000, 28.000000
4248, 64.000000, 300.000000, 28.000000
4249, 68.000000, 300.000000, 28.000000
4250, 72.000000, 300.000000, 28.000000
4251, 36.000000, 304.000000, 28.000000
4252, 40.000000, 304.000000, 28.000000
4253, 44.000000, 304.000000, 28.000000
4254, 48.000000, 304.000000, 28.000000
4255, 52.000000, 304.000000, 28.000000
4256, 56.000000, 304.000000, 28.000000
4257, 60.000000, 304.000000, 28.000000
4258, 64.000000, 304.000000, 28.000000
4259, 68.000000, 304.000000, 28.000000
4260, 72.000000, 304.000000, 28.000000
4261, 36.000000, 308.000000, 28.000000
4262, 40.000000, 308.000000, 28.000000
4263, 44.000000, 308.000000, 28.000000
4264, 48.000000, 308.000000, 28.000000
4265, 52.000000, 308.000000, 28.000000
4266, 56.000000, 308.000000, 28.000000
4267, 60.000000, 308.000000, 28.000000
4268, 64.000000, 308.000000, 28.000000
4269, 68.000000, 308.000000, 28.000000
4270, 72.000000, 308.000000, 28.000000
4271, 36.000000, 312.000000, 28.000000
4272, 40.000000, 312.000000, 28.000000
4273, 44.000000, 312.000000, 28.000000
4274, 48.000000, 312.000000, 28.000000
4275, 52.000000, 312.000000, 28.000000
4276, 56.000000, 312.000000, 28.000000
4277, 60.000000, 312.000000, 28.000000
4278, 64.000000, 312.000000, 28.000000
4279, 68.000000, 312.000000, 28.000000
4280, 72.000000, 312.000000, 28.000000
4281, 36.000000, 316.000000, 28.000000
4282, 40.000000, 316.000000, 28.000000
4283, 44.000000, 316.000000, 28.000000
4284, 48.000000, 316.000000, 28.000000
4285, 52.000000, 316.000000, 28.000000
4286, 56.000000, 316.000000, 28.000000
4287, 60.000000, 316.000000, 28.000000
4288, 64.000000, 316.000000, 28.000000
4289, 68.000000, 316.000000, 28.000000
4290, 72.000000, 316.000000, 28.000000
4291, 36.000000, 320.000000, 28.000000
4292, 40.000000, 320.000000, 28.000000
4293, 44.000000, 320.000000, 28.000000
4294, 48.000000, 320.000000, 28.000000
4295, 52.000000, 320.000000, 28.000000
4296, 56.000000, 320.000000, 28.000000
4297, 60.000000, 320.000000, 28.000000
4298, 64.000000, 320.000000, 28.000000
4299, 68.000000, 320.000000, 28.000000
4300, 72.000000, 320.000000, 28.000000
4301, 36.000000, 324.000000, 28.000000
4302, 40.000000, 324.000000, 28.000000
4303, 44.000000, 324.000000, 28.000000
4304, 48.000000, 324.000000, 28.000000
4305, 52.000000, 324.000000, 28.000000
4306, 56.000000, 324.000000, 28.000000
4307, 60.000000, 324.000000, 28.000000
4308, 64.000000, 324.000000, 28.000000
4309, 68.000000, 324.000000, 28.000000
4310, 72.000000, 324.000000, 28.000000
4311, 36.000000, 328.000000, 28.000000
4312, 40.000000, 328.000000, 28.000000
4313, 44.000000, 328.000000, 28.000000
4314, 48.000000, 328.000000, 28.000000
4315, 52.000000, 328.000000, 28.000000
4316, 56.000000, 328.000000, 28.000000
4317, 60.000000, 328.000000, 28.000000
4318, 64.000000, 328.000000, 28.000000
4319, 68.000000, 328.000000, 28.000000
4320, 72.000000, 328.000000, 28.000000
4321, 36.000000, 332.000000, 28.000000
4322, 40.000000, 332.000000, 28.000000
4323, 44.000000, 332.000000, 28.000000
4324, 48.000000, 332.000000, 28.000000
4325, 52.000000, 332.000000, 28.000000
4326, 56.000000, 332.000000, 28.000000
4327, 60.000000, 332.000000, 28.000000
4328, 64.000000, 332.000000, 28.000000
4329, 68.000000, 332.000000, 28.000000
4330, 72.000000, 332.000000, 28.000000
4331, 36.000000, 336.000000, 28.000000
4332, 40.000000, 336.000000, 28.000000
4333, 44.000000, 336.000000, 28.000000
4334, 48.000000, 336.000000, 28.000000
4335, 52.000000, 336.000000, 28.000000
4336, 56.000000, 336.000000, 28.000000
4337, 60.000000, 336.000000, 28.000000
4338, 64.000000, 336.000000, 28.000000
4339, 68.000000, 336.000000, 28.000000
4340, 72.000000, 336.000000, 28.000000
4341, 36.000000, 340.000000, 28.000000
4342, 40.000000, 340.000000, 28.000000
4343, 44.000000, 340.000000, 28.000000
4344, 48.000000, 340.000000, 28.000000
4345, 52.000000, 340.000000, 28.000000
4346, 56.000000, 340.000000, 28.000000
4347, 60.000000, 340.000000, 28.000000
4348, 64.000000, 340.000000, 28.000000
4349, 68.000000, 340.000000, 28.000000
4350, 72.000000, 340.000000, 28.000000
4351, 36.000000, 344.000000, 28.000000
4352, 40.000000, 344.000000, 28.000000
4353, 44.000000, 344.000000, 28.000000
4354, 48.000000, 344.000000, 28.000000
4355, 52.000000, 344.000000, 28.000000
4356, 56.000000, 344.000000, 28.000000
4357, 60.000000, 344.000000, 28.000000
4358, 64.000000, 344.000000, 28.000000
4359, 68.000000, 344.000000, 28.000000
4360, 72.000000, 344.000000, 28.000000
4361, 36.000000, 348.000000, 28.000000
4362, 40.000000, 348.000000, 28.000000
4363, 44.000000, 348.000000, 28.000000
4364, 48.000000, 348.000000, 28.000000
4365, 52.000000, 348.000000, 28.000000
4366, 56.000000, 348.000000, 28.000000
4367, 60.000000, 348.000000, 28.000000
4368, 64.000000, 348.000000, 28.000000
4369, 68.000000, 348.000000, 28.000000
4370, 72.000000, 348.000000, 28.000000
4371, 36.000000, 352.000000, 28.000000
4372, 40.000000, 352.000000, 28.000000
4373, 44.000000, 352.000000, 28.000000
4374, 48.000000, 352.000000, 28.000000
4375, 52.000000, 352.000000, 28.000000
4376, 56.000000, 352.000000, 28.000000
4377, 60.000000, 352.000000, 28.000000
4378, 64.000000, 352.000000, 28.000000
4379, 68.000000, 352.000000, 28.000000
4380, 72.000000, 352.000000, 28.000000
4381, 36.000000, 356.000000, 28.000000
4382, 40.000000, 356.000000, 28.000000
4383, 44.000000, 356.000000, 28.000000
4384, 48.000000, 356.000000, 28.000000
4385, 52.000000, 356.000000, 28.000000
4386, 56.000000, 356.000000, 28.000000
4387, 60.000000, 356.000000, 28.000000
4388, 64.000000, 356.000000, 28.000000
4389, 68.000000, 356.000000, 28.000000
4390, 72.000000, 356.000000, 28.000000
4391, 36.000000, 360.000000, 28.000000
4392, 40.000000, 360.000000, 28.000000
4393, 44.000000, 360.000000, 28.000000
4394, 48.000000, 360.000000, 28.000000
4395, 52.000000, 360.000000, 28.000000
4396, 56.000000, 360.000000, 28.000000
4397, 60.000000, 360.000000, 28.000000
4398, 64.000000, 360.000000, 28.000000
4399, 68.000000, 360.000000, 28.000000
4400, 72.000000, 360.000000, 28.000000
4401, 36.000000, 364.000000, 28.000000
4402, 40.000000, 364.000000, 28.000000
4403, 44.000000, 364.000000, 28.000000
4404, 48.000000, 364.000000, 28.000000
4405, 52.000000, 364.000000, 28.000000
4406, 56.000000, 364.000000, 28.000000
4407, 60.000000, 364.000000, 28.000000
4408, 64.000000, 364.000000, 28.000000
4409, 68.000000, 364.000000, 28.000000
4410, 72.000000, 364.000000, 28.000000
4411, 36.000000, 368.000000, 28.000000
4412, 40.000000, 368.000000, 28.000000
4413, 44.000000, 368.000000, 28.000000
4414, 48.000000, 368.000000, 28.000000
4415, 52.000000, 368.000000, 28.000000
4416, 56.000000, 368.000000, 28.000000
4417, 60.000000, 368.000000, 28.000000
4418, 64.000000, 368.000000, 28.000000
4419, 68.000000, 368.000000, 28.000000
4420, 72.000000, 368.000000, 28.000000
4421, 36.000000, 372.000000, 28.000000
4422, 40.000000, 372.000000, 28.000000
4423, 44.000000, 372.000000, 28.000000
4424, 48.000000, 372.000000, 28.000000
4425, 52.000000, 372.000000, 28.000000
4426, 56.000000, 372.000000, 28.000000
4427, 60.000000, 372.000000, 28.000000
4428, 64.000000, 372.000000, 28.000000
4429, 68.000000, 372.000000, 28.000000
4430, 72.000000, 372.000000, 28.000000
4431, 36.000000, 376.000000, 28.000000
4432, 40.000000, 376.000000, 28.000000
4433, 44.000000, 376.000000, 28.000000
4434, 48.000000, 376.000000, 28.000000
4435, 52.000000, 376.000000, 28.000000
4436, 56.000000, 376.000000, 28.000000
4437, 60.000000, 376.000000, 28.000000
4438, 64.000000, 376.000000, 28.000000
4439, 68.000000, 376.000000, 28.000000
4440, 72.000000, 376.000000, 28.000000
4441, 36.000000, 380.000000, 28.000000
4442, 40.000000, 380.000000, 28.000000
4443, 44.000000, 380.000000, 28.000000
4444, 48.000000, 380.000000, 28.000000
4445, 52.000000, 380.000000, 28.000000
4446, 56.000000, 380.000000, 28.000000
4447, 60.000000, 380.000000, 28.000000
4448, 64.000000, 380.000000, 28.000000
4449, 68.000000, 380.000000, 28.000000
4450, 72.000000, 380.000000, 28.000000
4451, 36.000000, 384.000000, 28.000000
4452, 40.000000, 384.000000, 28.000000
4453, 44.000000, 384.000000, 28.000000
4454, 48.000000, 384.000000, 28.000000
4455, 52.000000, 384.000000, 28.000000
4456, 56.000000, 384.000000, 28.000000
4457, 60.000000, 384.000000, 28.000000
4458, 64.000000, 384.000000, 28.000000
4459, 68.000000, 384.000000, 28.000000
4460, 72.000000, 384.000000, 28.000000
4461, 36.000000, 388.000000, 28.000000
4462, 40.000000, 388.000000, 28.000000
4463, 44.000000, 388.000000, 28.000000
4464, 48.000000, 388.000000, 28.000000
4465, 52.000000, 388.000000, 28.000000
4466, 56.000000, 388.000000, 28.000000
4467, 60.000000, 388.000000, 28.000000
4468, 64.000000, 388.000000, 28.000000
4469, 68.000000, 388.000000, 28.000000
4470, 72.000000, 388.000000, 28.000000
4471, 36.000000, 392.000000, 28.000000
4472, 40.000000, 392.000000, 28.000000
4473, 44.000000, 392.000000, 28.000000
4474, 48.000000, 392.000000, 28.000000
4475, 52.000000, 392.000000, 28.000000
4476, 56.000000, 392.000000, 28.000000
4477, 60.000000, 392.000000, 28.000000
4478, 64.000000, 392.000000, 28.000000
4479, 68.000000, 392.000000, 28.000000
4480, 72.000000, 392.000000, 28.000000
4481, 36.000000, 396.000000, 28.000000
4482, 40.000000, 396.000000, 28.000000
4483, 44.000000, 396.000000, 28.000000
4484, 48.000000, 396.000000, 28.000000
4485, 52.000000, 396.000000, 28.000000
4486, 56.000000, 396.000000, 28.000000
4487, 60.000000, 396.000000, 28.000000
4488, 64.000000, 396.000000, 28.000000
4489, 68.000000, 396.000000, 28.000000
4490, 72.000000, 396.000000, 28.000000
4491, 36.000000, 400.000000, 28.000000
4492, 40.000000, 400.000000, 28.000000
4493, 44.000000, 400.000000, 28.000000
4494, 48.000000, 400.000000, 28.000000
4495, 52.000000, 400.000000, 28.000000
4496, 56.000000, 400.000000, 28.000000
4497, 60.000000, 400.000000, 28.000000
4498, 64.000000, 400.000000, 28.000000
4499, 68.000000, 400.000000, 28.000000
4500, 72.000000, 400.000000, 28.000000
4501, 36.000000, 404.000000, 28.000000
4502, 40.000000, 404.000000, 28.000000
4503, 44.000000, 404.000000, 28.000000
4504, 48.000000, 404.000000, 28.000000
4505, 52.000000, 404.000000, 28.000000
4506, 56.000000, 404.000000, 28.000000
4507, 60.000000, 404.000000, 28.000000
4508, 64.000000, 404.000000, 28.000000
4509, 68.000000, 404.000000, 28.000000
4510, 72.000000, 404.000000, 28.000000
4511, 36.000000, 408.000000, 28.000000
4512, 40.000000, 408.000000, 28.000000
4513, 44.000000, 408.000000, 28.000000
4514, 48.000000, 408.000000, 28.000000
4515, 52.000000, 408.000000, 28.000000
4516, 56.000000, 408.000000, 28.000000
4517, 60.000000, 408.000000, 28.000000
4518, 64.000000, 408.000000, 28.000000
4519, 68.000000, 408.000000, 28.000000
4520, 72.000000, 408.000000, 28.000000
4521, 36.000000, 412.000000, 28.000000
4522, 40.000000, 412.000000, 28.000000
4523, 44.000000, 412.000000, 28.000000
4524, 48.000000, 412.000000, 28.000000
4525, 52.000000, 412.000000, 28.000000
4526, 56.000000, 412.000000, 28.000000
4527, 60.000000, 412.000000, 28.000000
4528, 64.000000, 412.000000, 28.000000
4529, 68.000000, 412.000000, 28.000000
4530, 72.000000, 412.000000, 28.000000
4531, 36.000000, 416.000000, 28.000000
4532, 40.000000, 416.000000, 28.000000
4533, 44.000000, 416.000000, 28.000000
4534, 48.000000, 416.000000, 28.000000
4535, 52.000000, 416.000000, 28.000000
4536, 56.000000, 416.000000, 28.000000
4537, 60.000000, 416.000000, 28.000000
4538, 64.000000, 416.000000, 28.000000
4539, 68.000000, 416.000000, 28.000000
4540, 72.000000, 416.000000, 28.000000
4541, 36.000000, 420.000000, 28.000000
4542, 40.000000, 420.000000, 28.000000
4543, 44.000000, 420.000000, 28.000000
4544, 48.000000, 420.000000, 28.000000
4545, 52.000000, 420.000000, 28.000000
4546, 56.000000, 420.000000, 28.000000
4547, 60.000000, 420.000000, 28.000000
4548, 64.000000, 420.000000, 28.000000
4549, 68.000000, 420.000000, 28.000000
4550, 72.000000, 420.000000, 28.000000
4551, 36.000000, 424.000000, 28.000000
4552, 40.000000, 424.000000, 28.000000
4553, 44.000000, 424.000000, 28.000000
4554, 48.000000, 424.000000, 28.000000
4555, 52.000000, 424.000000, 28.000000
4556, 56.000000, 424.000000, 28.000000
4557, 60.000000, 424.000000, 28.000000
4558, 64.000000, 424.000000, 28.000000
4559, 68.000000, 424.000000, 28.000000
4560, 72.000000, 424.000000, 28.000000
4561, 36.000000, 428.000000, 28.000000
4562, 40.000000, 428.000000, 28.000000
4563, 44.000000, 428.000000, 28.000000
4564, 48.000000, 428.000000, 28.000000
4565, 52.000000, 428.000000, 28.000000
4566, 56.000000, 428.000000, 28.000000
4567, 60.000000, 428.000000, 28.000000
4568, 64.000000, 428.000000, 28.000000
4569, 68.000000, 428.000000, 28.000000
4570, 72.000000, 428.000000, 28.000000
4571, 36.000000, 432.000000, 28.000000
4572, 40.000000, 432.000000, 28.000000
4573, 44.000000, 432.000000, 28.000000
4574, 48.000000, 432.000000, 28.000000
4575, 52.000000, 432.000000, 28.000000
4576, 56.000000, 432.000000, 28.000000
4577, 60.000000, 432.000000, 28.000000
4578, 64.000000, 432.000000, 28.000000
4579, 68.000000, 432.000000, 28.000000
4580, 72.000000, 432.000000, 28.000000
4581, 36.000000, 436.000000, 28.000000
4582, 40.000000, 436.000000, 28.000000
4583, 44.000000, 436.000000, 28.000000
4584, 48.000000, 436.000000, 28.000000
4585, 52.000000, 436.000000, 28.000000
4586, 56.000000, 436.000000, 28.000000
4587, 60.000000, 436.000000, 28.000000
4588, 64.000000, 436.000000, 28.000000
4589, 68.000000, 436.000000, 28.000000
4590, 72.000000, 436.000000, 28.000000
4591, 36.000000, 440.000000, 28.000000
4592, 40.000000, 440.000000, 28.000000
4593, 44.000000, 440.000000, 28.000000
4594, 48.000000, 440.000000, 28.000000
4595, 52.000000, 440.000000, 28.000000
4596, 56.000000, 440.000000, 28.000000
4597, 60.000000, 440.000000, 28.000000
4598, 64.000000, 440.000000, 28.000000
4599, 68.000000, 440.000000, 28.000000
4600, 72.000000, 440.000000, 28.000000
4601, 36.000000, 444.000000, 28.000000
4602, 40.000000, 444.000000, 28.000000
4603, 44.000000, 444.000000, 28.000000
4604, 48.000000, 444.000000, 28.000000
4605, 52.000000, 444.000000, 28.000000
4606, 56.000000, 444.000000, 28.000000
4607, 60.000000, 444.000000, 28.000000
4608, 64.000000, 444.000000, 28.000000
4609, 68.000000, 444.000000, 28.000000
4610, 72.000000, 444.000000, 28.000000
4611, 36.000000, 448.000000, 28.000000
4612, 40.000000, 448.000000, 28.000000
4613, 44.000000, 448.000000, 28.000000
4614, 48.000000, 448.000000, 28.000000
4615, 52.000000, 448.000000, 28.000000
4616, 56.000000, 448.000000, 28.000000
4617, 60.000000, 448.000000, 28.000000
4618, 64.000000, 448.000000, 28.000000
4619, 68.000000, 448.000000, 28.000000
4620, 72.000000, 448.000000, 28.000000
4621, 36.000000, 452.000000, 28.000000
4622, 40.000000, 452.000000, 28.000000
4623, 44.000000, 452.000000, 28.000000
4624, 48.000000, 452.000000, 28.000000
4625, 52.000000, 452.000000, 28.000000
4626, 56.000000, 452.000000, 28.000000
4627, 60.000000, 452.000000, 28.000000
4628, 64.000000, 452.000000, 28.000000
4629, 68.000000, 452.000000, 28.000000
4630, 72.000000, 452.000000, 28.000000
4631, 36.000000, 456.000000, 28.000000
4632, 40.000000, 456.000000, 28.000000
4633, 44.000000, 456.000000, 28.000000
4634, 48.000000, 456.000000, 28.000000
4635, 52.000000, 456.000000, 28.000000
4636, 56.000000, 456.000000, 28.000000
4637, 60.000000, 456.000000, 28.000000
4638, 64.000000, 456.000000, 28.000000
4639, 68.000000, 456.000000, 28.000000
4640, 72.000000, 456.000000, 28.000000
4641, 36.000000, 228.000000, 32.000000
4642, 40.000000, 228.000000, 32.000000
4643, 44.000000, 228.000000, 32.000000
4644, 48.000000, 228.000000, 32.000000
4645, 52.000000, 228.000000, 32.000000
4646, 56.000000, 228.000000, 32.000000
4647, 60.000000, 228.000000, 32.000000
4648, 64.000000, 228.000000, 32.000000
4649, 68.000000, 228.000000, 32.000000
4650, 72.000000, 228.000000, 32.000000
4651, 36.000000, 232.000000, 32.000000
4652, 40.000000, 232.000000, 32.000000
4653, 44.000000, 232.000000, 32.000000
4654, 48.000000, 232.000000, 32.000000
4655, 52.000000, 232.000000, 32.000000
4656, 56.000000, 232.000000, 32.000000
4657, 60.000000, 232.000000, 32.000000
4658, 64.000000, 232.000000, 32.000000
4659, 68.000000, 232.000000, 32.000000
4660, 72.000000, 232.000000, 32.000000
4661, 36.000000, 236.000000, 32.000000
4662, 40.000000, 236.000000, 32.000000
4663, 44.000000, 236.000000, 32.000000
4664, 48.000000, 236.000000, 32.000000
4665, 52.000000, 236.000000, 32.000000
4666, 56.000000, 236.000000, 32.000000
4667, 60.000000, 236.000000, 32.000000
4668, 64.000000, 236.000000, 32.000000
4669, 68.000000, 236.000000, 32.000000
4670, 72.000000, 236.000000, 32.000000
4671, 36.000000, 240.000000, 32.000000
4672, 40.000000, 240.000000, 32.000000
4673, 44.000000, 240.000000, 32.000000
4674, 48.000000, 240.000000, 32.000000
4675, 52.000000, 240.000000, 32.000000
4676, 56.000000, 240.000000, 32.000000
4677, 60.000000, 240.000000, 32.000000
4678, 64.000000, 240.000000, 32.000000
4679, 68.000000, 240.000000, 32.000000
4680, 72.000000, 240.000000, 32.000000
4681, 36.000000, 244.000000, 32.000000
4682, 40.000000, 244.000000, 32.000000
4683, 44.000000, 244.000000, 32.000000
4684, 48.000000, 244.000000, 32.000000
4685, 52.000000, 244.000000, 32.000000
4686, 56.000000, 244.000000, 32.000000
4687, 60.000000, 244.000000, 32.000000
4688, 64.000000, 244.000000, 32.000000
4689, 68.000000, 244.000000, 32.000000
4690, 72.000000, 244.000000, 32.000000
4691, 36.000000, 248.000000, 32.000000
4692, 40.000000, 248.000000, 32.000000
4693, 44.000000, 248.000000, 32.000000
4694, 48.000000, 248.000000, 32.000000
4695, 52.000000, 248.000000, 32.000000
4696, 56.000000, 248.000000, 32.000000
4697, 60.000000, 248.000000, 32.000000
4698, 64.000000, 248.000000, 32.000000
4699, 68.000000, 248.000000, 32.000000
4700, 72.000000, 248.000000, 32.000000
4701, 36.000000, 252.000000, 32.000000
4702, 40.000000, 252.000000, 32.000000
4703, 44.000000, 252.000000, 32.000000
4704, 48.000000, 252.000000, 32.000000
4705, 52.000000, 252.000000, 32.000000
4706, 56.000000, 252.000000, 32.000000
4707, 60.000000, 252.000000, 32.000000
4708, 64.000000, 252.000000, 32.000000
4709, 68.000000, 252.000000, 32.000000
4710, 72.000000, 252.000000, 32.000000
4711, 36.000000, 256.000000, 32.000000
4712, 40.000000, 256.000000, 32.000000
4713, 44.000000, 256.000000, 32.000000
4714, 48.000000, 256.000000, 32.000000
4715, 52.000000, 256.000000, 32.000000
4716, 56.000000, 256.000000, 32.000000
4717, 60.000000, 256.000000, 32.000000
4718, 64.000000, 256.000000, 32.000000
4719, 68.000000, 256.000000, 32.000000
4720, 72.000000, 256.000000, 32.000000
4721, 36.000000, 260.000000, 32.000000
4722, 40.000000, 260.000000, 32.000000
4723, 44.000000, 260.000000, 32.000000
4724, 48.000000, 260.000000, 32.000000
4725, 52.000000, 260.000000, 32.000000
4726, 56.000000, 260.000000, 32.000000
4727, 60.000000, 260.000000, 32.000000
4728, 64.000000, 260.000000, 32.000000
4729, 68.000000, 260.000000, 32.000000
4730, 72.000000, 260.000000, 32.000000
4731, 36.000000, 264.000000, 32.000000
4732, 40.000000, 264.000000, 32.000000
4733, 44.000000, 264.000000, 32.000000
4734, 48.000000, 264.000000, 32.000000
4735, 52.000000, 264.000000, 32.000000
4736, 56.000000, 264.000000, 32.000000
4737, 60.000000, 264.000000, 32.000000
4738, 64.000000, 264.000000, 32.000000
4739, 68.000000, 264.000000, 32.000000
4740, 72.000000, 264.000000, 32.000000
4741, 36.000000, 268.000000, 32.000000
4742, 40.000000, 268.000000, 32.000000
4743, 44.000000, 268.000000, 32.000000
4744, 48.000000, 268.000000, 32.000000
4745, 52.000000, 268.000000, 32.000000
4746, 56.000000, 268.000000, 32.000000
4747, 60.000000, 268.000000, 32.000000
4748, 64.000000, 268.000000, 32.000000
4749, 68.000000, 268.000000, 32.000000
4750, 72.000000, 268.000000, 32.000000
4751, 36.000000, 272.000000, 32.000000
4752, 40.000000, 272.000000, 32.000000
4753, 44.000000, 272.000000, 32.000000
4754, 48.000000, 272.000000, 32.000000
4755, 52.000000, 272.000000, 32.000000
4756, 56.000000, 272.000000, 32.000000
4757, 60.000000, 272.000000, 32.000000
4758, 64.000000, 272.000000, 32.000000
4759, 68.000000, 272.000000, 32.000000
4760, 72.000000, 272.000000, 32.000000
4761, 36.000000, 276.000000, 32.000000
4762, 40.000000, 276.000000, 32.000000
4763, 44.000000, 276.000000, 32.000000
4764, 48.000000, 276.000000, 32.000000
4765, 52.000000, 276.000000, 32.000000
4766, 56.000000, 276.000000, 32.000000
4767, 60.000000, 276.000000, 32.000000
4768, 64.000000, 276.000000, 32.000000
4769, 68.000000, 276.000000, 32.000000
4770, 72.000000, 276.000000, 32.000000
4771, 36.000000, 280.000000, 32.000000
4772, 40.000000, 280.000000, 32.000000
4773, 44.000000, 280.000000, 32.000000
4774, 48.000000, 280.000000, 32.000000
4775, 52.000000, 280.000000, 32.000000
4776, 56.000000, 280.000000, 32.000000
4777, 60.000000, 280.000000, 32.000000
4778, 64.000000, 280.000000, 32.000000
4779, 68.000000, 280.000000, 32.000000
4780, 72.000000, 280.000000, 32.000000
4781, 36.000000, 284.000000, 32.000000
4782, 40.000000, 284.000000, 32.000000
4783, 44.000000, 284.000000, 32.000000
4784, 48.000000, 284.000000, 32.000000
4785, 52.000000, 284.000000, 32.000000
4786, 56.000000, 284.000000, 32.000000
4787, 60.000000, 284.000000, 32.000000
4788, 64.000000, 284.000000, 32.000000
4789, 68.000000, 284.000000, 32.000000
4790, 72.000000, 284.000000, 32.000000
4791, 36.000000, 288.000000, 32.000000
4792, 40.000000, 288.000000, 32.000000
4793, 44.000000, 288.000000, 32.000000
4794, 48.000000, 288.000000, 32.000000
4795, 52.000000, 288.000000, 32.000000
4796, 56.000000, 288.000000, 32.000000
4797, 60.000000, 288.000000, 32.000000
4798, 64.000000, 288.000000, 32.000000
4799, 68.000000, 288.000000, 32.000000
4800, 72.000000, 288.000000, 32.000000
4801, 36.000000, 292.000000, 32.000000
4802, 40.000000, 292.000000, 32.000000
4803, 44.000000, 292.000000, 32.000000
4804, 48.000000, 292.000000, 32.000000
4805, 52.000000, 292.000000, 32.000000
4806, 56.000000, 292.000000, 32.000000
4807, 60.000000, 292.000000, 32.000000
4808, 64.000000, 292.000000, 32.000000
4809, 68.000000, 292.000000, 32.000000
4810, 72.000000, 292.000000, 32.000000
4811, 36.000000, 296.000000, 32.000000
4812, 40.000000, 296.000000, 32.000000
4813, 44.000000, 296.000000, 32.000000
4814, 48.000000, 296.000000, 32.000000
4815, 52.000000, 296.000000, 32.000000
4816, 56.000000, 296.000000, 32.000000
4817, 60.000000, 296.000000, 32.000000
4818, 64.000000, 296.000000, 32.000000
4819, 68.000000, 296.000000, 32.000000
4820, 72.000000, 296.000000, 32.000000
4821, 36.000000, 300.000000, 32.000000
4822, 40.000000, 300.000000, 32.000000
4823, 44.000000, 300.000000, 32.000000
4824, 48.000000, 300.000000, 32.000000
4825, 52.000000, 300.000000, 32.000000
4826, 56.000000, 300.000000, 32.000000
4827, 60.000000, 300.000000, 32.000000
4828, 64.000000, 300.000000, 32.000000
4829, 68.000000, 300.000000, 32.000000
4830, 72.000000, 300.000000, 32.000000
4831, 36.000000, 304.000000, 32.000000
4832, 40.000000, 304.000000, 32.000000
4833, 44.000000, 304.000000, 32.000000
4834, 48.000000, 304.000000, 32.000000
4835, 52.000000, 304.000000, 32.000000
4836, 56.000000, 304.000000, 32.000000
4837, 60.000000, 304.000000, 32.000000
4838, 64.000000, 304.000000, 32.000000
4839, 68.000000, 304.000000, 32.000000
4840, 72.000000, 304.000000, 32.000000
4841, 36.000000, 308.000000, 32.000000
4842, 40.000000, 308.000000, 32.000000
4843, 44.000000, 308.000000, 32.000000
4844, 48.000000, 308.000000, 32.000000
4845, 52.000000, 308.000000, 32.000000
4846, 56.000000, 308.000000, 32.000000
4847, 60.000000, 308.000000, 32.000000
4848, 64.000000, 308.000000, 32.000000
4849, 68.000000, 308.000000, 32.000000
4850, 72.000000, 308.000000, 32.000000
4851, 36.000000, 312.000000, 32.000000
4852, 40.000000, 312.000000, 32.000000
4853, 44.000000, 312.000000, 32.000000
4854, 48.000000, 312.000000, 32.000000
4855, 52.000000, 312.000000, 32.000000
4856, 56.000000, 312.000000, 32.000000
4857, 60.000000, 312.000000, 32.000000
4858, 64.000000, 312.000000, 32.000000
4859, 68.000000, 312.000000, 32.000000
4860, 72.000000, 312.000000, 32.000000
4861, 36.000000, 316.000000, 32.000000
4862, 40.000000, 316.000000, 32.000000
4863, 44.000000, 316.000000, 32.000000
4864, 48.000000, 316.000000, 32.000000
4865, 52.000000, 316.000000, 32.000000
4866, 56.000000, 316.000000, 32.000000
4867, 60.000000, 316.000000, 32.000000
4868, 64.000000, 316.000000, 32.000000
4869, 68.000000, 316.000000, 32.000000
4870, 72.000000, 316.000000, 32.000000
4871, 36.000000, 320.000000, 32.000000
4872, 40.000000, 320.000000, 32.000000
4873, 44.000000, 320.000000, 32.000000
4874, 48.000000, 320.000000, 32.000000
4875, 52.000000, 320.000000, 32.000000
4876, 56.000000, 320.000000, 32.000000
4877, 60.000000, 320.000000, 32.000000
4878, 64.000000, 320.000000, 32.000000
4879, 68.000000, 320.000000, 32.000000
4880, 72.000000, 320.000000, 32.000000
4881, 36.000000, 324.000000, 32.000000
4882, 40.000000, 324.000000, 32.000000
4883, 44.000000, 324.000000, 32.000000
4884, 48.000000, 324.000000, 32.000000
4885, 52.000000, 324.000000, 32.000000
4886, 56.000000, 324.000000, 32.000000
4887, 60.000000, 324.000000, 32.000000
4888, 64.000000, 324.000000, 32.000000
4889, 68.000000, 324.000000, 32.000000
4890, 72.000000, 324.000000, 32.000000
4891, 36.000000, 328.000000, 32.000000
4892, 40.000000, 328.000000, 32.000000
4893, 44.000000, 328.000000, 32.000000
4894, 48.000000, 328.000000, 32.000000
4895, 52.000000, 328.000000, 32.000000
4896, 56.000000, 328.000000, 32.000000
4897, 60.000000, 328.000000, 32.000000
4898, 64.000000, 328.000000, 32.000000
4899, 68.000000, 328.000000, 32.000000
4900, 72.000000, 328.000000, 32.000000
4901, 36.000000, 332.000000, 32.000000
4902, 40.000000, 332.000000, 32.000000
4903, 44.000000, 332.000000, 32.000000
4904, 48.000000, 332.000000, 32.000000
4905, 52.000000, 332.000000, 32.000000
4906, 56.000000, 332.000000, 32.000000
4907, 60.000000, 332.000000, 32.000000
4908, 64.000000, 332.000000, 32.000000
4909, 68.000000, 332.000000, 32.000000
4910, 72.000000, 332.000000, 32.000000
4911, 36.000000, 336.000000, 32.000000
4912, 40.000000, 336.000000, 32.000000
4913, 44.000000, 336.000000, 32.000000
4914, 48.000000, 336.000000, 32.000000
4915, 52.000000, 336.000000, 32.000000
4916, 56.000000, 336.000000, 32.000000
4917, 60.000000, 336.000000, 32.000000
4918, 64.000000, 336.000000, 32.000000
4919, 68.000000, 336.000000, 32.000000
4920, 72.000000, 336.000000, 32.000000
4921, 36.000000, 340.000000, 32.000000
4922, 40.000000, 340.000000, 32.000000
4923, 44.000000, 340.000000, 32.000000
4924, 48.000000, 340.000000, 32.000000
4925, 52.000000, 340.000000, 32.000000
4926, 56.000000, 340.000000, 32.000000
4927, 60.000000, 340.000000, 32.000000
4928, 64.000000, 340.000000, 32.000000
4929, 68.000000, 340.000000, 32.000000
4930, 72.000000, 340.000000, 32.000000
4931, 36.000000, 344.000000, 32.000000
4932, 40.000000, 344.000000, 32.000000
4933, 44.000000, 344.000000, 32.000000
4934, 48.000000, 344.000000, 32.000000
4935, 52.000000, 344.000000, 32.000000
4936, 56.000000, 344.000000, 32.000000
4937, 60.000000, 344.000000, 32.000000
4938, 64.000000, 344.000000, 32.000000
4939, 68.000000, 344.000000, 32.000000
4940, 72.000000, 344.000000, 32.000000
4941, 36.000000, 348.000000, 32.000000
4942, 40.000000, 348.000000, 32.000000
4943, 44.000000, 348.000000, 32.000000
4944, 48.000000, 348.000000, 32.000000
4945, 52.000000, 348.000000, 32.000000
4946, 56.000000, 348.000000, 32.000000
4947, 60.000000, 348.000000, 32.000000
4948, 64.000000, 348.000000, 32.000000
4949, 68.000000, 348.000000, 32.000000
4950, 72.000000, 348.000000, 32.000000
4951, 36.000000, 352.000000, 32.000000
4952, 40.000000, 352.000000, 32.000000
4953, 44.000000, 352.000000, 32.000000
4954, 48.000000, 352.000000, 32.000000
4955, 52.000000, 352.000000, 32.000000
4956, 56.000000, 352.000000, 32.000000
4957, 60.000000, 352.000000, 32.000000
4958, 64.000000, 352.000000, 32.000000
4959, 68.000000, 352.000000, 32.000000
4960, 72.000000, 352.000000, 32.000000
4961, 36.000000, 356.000000, 32.000000
4962, 40.000000, 356.000000, 32.000000
4963, 44.000000, 356.000000, 32.000000
4964, 48.000000, 356.000000, 32.000000
4965, 52.000000, 356.000000, 32.000000
4966, 56.000000, 356.000000, 32.000000
4967, 60.000000, 356.000000, 32.000000
4968, 64.000000, 356.000000, 32.000000
4969, 68.000000, 356.000000, 32.000000
4970, 72.000000, 356.000000, 32.000000
4971, 36.000000, 360.000000, 32.000000
4972, 40.000000, 360.000000, 32.000000
4973, 44.000000, 360.000000, 32.000000
4974, 48.000000, 360.000000, 32.000000
4975, 52.000000, 360.000000, 32.000000
4976, 56.000000, 360.000000, 32.000000
4977, 60.000000, 360.000000, 32.000000
4978, 64.000000, 360.000000, 32.000000
4979, 68.000000, 360.000000, 32.000000
4980, 72.000000, 360.000000, 32.000000
4981, 36.000000, 364.000000, 32.000000
4982, 40.000000, 364.000000, 32.000000
4983, 44.000000, 364.000000, 32.000000
4984, 48.000000, 364.000000, 32.000000
4985, 52.000000, 364.000000, 32.000000
4986, 56.000000, 364.000000, 32.000000
4987, 60.000000, 364.000000, 32.000000
4988, 64.000000, 364.000000, 32.000000
4989, 68.000000, 364.000000, 32.000000
4990, 72.000000, 364.000000, 32.000000
4991, 36.000000, 368.000000, 32.000000
4992, 40.000000, 368.000000, 32.000000
4993, 44.000000, 368.000000, 32.000000
4994, 48.000000, 368.000000, 32.000000
4995, 52.000000, 368.000000, 32.000000
4996, 56.000000, 368.000000, 32.000000
4997, 60.000000, 368.000000, 32.000000
4998, 64.000000, 368.000000, 32.000000
4999, 68.000000, 368.000000, 32.000000
5000, 72.000000, 368.000000, 32.000000
5001, 36.000000, 372.000000, 32.000000
5002, 40.000000, 372.000000, 32.000000
5003, 44.000000, 372.000000, 32.000000
5004, 48.000000, 372.000000, 32.000000
5005, 52.000000, 372.000000, 32.000000
5006, 56.000000, 372.000000, 32.000000
5007, 60.000000, 372.000000, 32.000000
5008, 64.000000, 372.000000, 32.000000
5009, 68.000000, 372.000000, 32.000000
5010, 72.000000, 372.000000, 32.000000
5011, 36.000000, 376.000000, 32.000000
5012, 40.000000, 376.000000, 32.000000
5013, 44.000000, 376.000000, 32.000000
5014, 48.000000, 376.000000, 32.000000
5015, 52.000000, 376.000000, 32.000000
5016, 56.000000, 376.000000, 32.000000
5017, 60.000000, 376.000000, 32.000000
5018, 64.000000, 376.000000, 32.000000
5019, 68.000000, 376.000000, 32.000000
5020, 72.000000, 376.000000, 32.000000
5021, 36.000000, 380.000000, 32.000000
5022, 40.000000, 380.000000, 32.000000
5023, 44.000000, 380.000000, 32.000000
5024, 48.000000, 380.000000, 32.000000
5025, 52.000000, 380.000000, 32.000000
5026, 56.000000, 380.000000, 32.000000
5027, 60.000000, 380.000000, 32.000000
5028, 64.000000, 380.000000, 32.000000
5029, 68.000000, 380.000000, 32.000000
5030, 72.000000, 380.000000, 32.000000
5031, 36.000000, 384.000000, 32.000000
5032, 40.000000, 384.000000, 32.000000
5033, 44.000000, 384.000000, 32.000000
5034, 48.000000, 384.000000, 32.000000
5035, 52.000000, 384.000000, 32.000000
5036, 56.000000, 384.000000, 32.000000
5037, 60.000000, 384.000000, 32.000000
5038, 64.000000, 384.000000, 32.000000
5039, 68.000000, 384.000000, 32.000000
5040, 72.000000, 384.000000, 32.000000
5041, 36.000000, 388.000000, 32.000000
5042, 40.000000, 388.000000, 32.000000
5043, 44.000000, 388.000000, 32.000000
5044, 48.000000, 388.000000, 32.000000
5045, 52.000000, 388.000000, 32.000000
5046, 56.000000, 388.000000, 32.000000
5047, 60.000000, 388.000000, 32.000000
5048, 64.000000, 388.000000, 32.000000
5049, 68.000000, 388.000000, 32.000000
5050, 72.000000, 388.000000, 32.000000
5051, 36.000000, 392.000000, 32.000000
5052, 40.000000, 392.000000, 32.000000
5053, 44.000000, 392.000000, 32.000000
5054, 48.000000, 392.000000, 32.000000
5055, 52.000000, 392.000000, 32.000000
5056, 56.000000, 392.000000, 32.000000
5057, 60.000000, 392.000000, 32.000000
5058, 64.000000, 392.000000, 32.000000
5059, 68.000000, 392.000000, 32.000000
5060, 72.000000, 392.000000, 32.000000
5061, 36.000000, 396.000000, 32.000000
5062, 40.000000, 396.000000, 32.000000
5063, 44.000000, 396.000000, 32.000000
5064, 48.000000, 396.000000, 32.000000
5065, 52.000000, 396.000000, 32.000000
5066, 56.000000, 396.000000, 32.000000
5067, 60.000000, 396.000000, 32.000000
5068, 64.000000, 396.000000, 32.000000
5069, 68.000000, 396.000000, 32.000000
5070, 72.000000, 396.000000, 32.000000
5071, 36.000000, 400.000000, 32.000000
5072, 40.000000, 400.000000, 32.000000
5073, 44.000000, 400.000000, 32.000000
5074, 48.000000, 400.000000, 32.000000
5075, 52.000000, 400.000000, 32.000000
5076, 56.000000, 400.000000, 32.000000
5077, 60.000000, 400.000000, 32.000000
5078, 64.000000, 400.000000, 32.000000
5079, 68.000000, 400.000000, 32.000000
5080, 72.000000, 400.000000, 32.000000
5081, 36.000000, 404.000000, 32.000000
5082, 40.000000, 404.000000, 32.000000
5083, 44.000000, 404.000000, 32.000000
5084, 48.000000, 404.000000, 32.000000
5085, 52.000000, 404.000000, 32.000000
5086, 56.000000, 404.000000, 32.000000
5087, 60.000000, 404.000000, 32.000000
5088, 64.000000, 404.000000, 32.000000
5089, 68.000000, 404.000000, 32.000000
5090, 72.000000, 404.000000, 32.000000
5091, 36.000000, 408.000000, 32.000000
5092, 40.000000, 408.000000, 32.000000
5093, 44.000000, 408.000000, 32.000000
5094, 48.000000, 408.000000, 32.000000
5095, 52.000000, 408.000000, 32.000000
5096, 56.000000, 408.000000, 32.000000
5097, 60.000000, 408.000000, 32.000000
5098, 64.000000, 408.000000, 32.000000
5099, 68.000000, 408.000000, 32.000000
5100, 72.000000, 408.000000, 32.000000
5101, 36.000000, 412.000000, 32.000000
5102, 40.000000, 412.000000, 32.000000
5103, 44.000000, 412.000000, 32.000000
5104, 48.000000, 412.000000, 32.000000
5105, 52.000000, 412.000000, 32.000000
5106, 56.000000, 412.000000, 32.000000
5107, 60.000000, 412.000000, 32.000000
5108, 64.000000, 412.000000, 32.000000
5109, 68.000000, 412.000000, 32.000000
5110, 72.000000, 412.000000, 32.000000
5111, 36.000000, 416.000000, 32.000000
5112, 40.000000, 416.000000, 32.000000
5113, 44.000000, 416.000000, 32.000000
5114, 48.000000, 416.000000, 32.000000
5115, 52.000000, 416.000000, 32.000000
5116, 56.000000, 416.000000, 32.000000
5117, 60.000000, 416.000000, 32.000000
5118, 64.000000, 416.000000, 32.000000
5119, 68.000000, 416.000000, 32.000000
5120, 72.000000, 416.000000, 32.000000
5121, 36.000000, 420.000000, 32.000000
5122, 40.000000, 420.000000, 32.000000
5123, 44.000000, 420.000000, 32.000000
5124, 48.000000, 420.000000, 32.000000
5125, 52.000000, 420.000000, 32.000000
5126, 56.000000, 420.000000, 32.000000
5127, 60.000000, 420.000000, 32.000000
5128, 64.000000, 420.000000, 32.000000
5129, 68.000000, 420.000000, 32.000000
5130, 72.000000, 420.000000, 32.000000
5131, 36.000000, 424.000000, 32.000000
5132, 40.000000, 424.000000, 32.000000
5133, 44.000000, 424.000000, 32.000000
5134, 48.000000, 424.000000, 32.000000
5135, 52.000000, 424.000000, 32.000000
5136, 56.000000, 424.000000, 32.000000
5137, 60.000000, 424.000000, 32.000000
5138, 64.000000, 424.000000, 32.000000
5139, 68.000000, 424.000000, 32.000000
5140, 72.000000, 424.000000, 32.000000
5141, 36.000000, 428.000000, 32.000000
5142, 40.000000, 428.000000, 32.000000
5143, 44.000000, 428.000000, 32.000000
5144, 48.000000, 428.000000, 32.000000
5145, 52.000000, 428.000000, 32.000000
5146, 56.000000, 428.000000, 32.000000
5147, 60.000000, 428.000000, 32.000000
5148, 64.000000, 428.000000, 32.000000
5149, 68.000000, 428.000000, 32.000000
5150, 72.000000, 428.000000, 32.000000
5151, 36.000000, 432.000000, 32.000000
5152, 40.000000, 432.000000, 32.000000
5153, 44.000000, 432.000000, 32.000000
5154, 48.000000, 432.000000, 32.000000
5155, 52.000000, 432.000000, 32.000000
5156, 56.000000, 432.000000, 32.000000
5157, 60.000000, 432.000000, 32.000000
5158, 64.000000, 432.000000, 32.000000
5159, 68.000000, 432.000000, 32.000000
5160, 72.000000, 432.000000, 32.000000
5161, 36.000000, 436.000000, 32.000000
5162, 40.000000, 436.000000, 32.000000
5163, 44.000000, 436.000000, 32.000000
5164, 48.000000, 436.000000, 32.000000
5165, 52.000000, 436.000000, 32.000000
5166, 56.000000, 436.000000, 32.000000
5167, 60.000000, 436.000000, 32.000000
5168, 64.000000, 436.000000, 32.000000
5169, 68.000000, 436.000000, 32.000000
5170, 72.000000, 436.000000, 32.000000
5171, 36.000000, 440.000000, 32.000000
5172, 40.000000, 440.000000, 32.000000
5173, 44.000000, 440.000000, 32.000000
5174, 48.000000, 440.000000, 32.000000
5175, 52.000000, 440.000000, 32.000000
5176, 56.000000, 440.000000, 32.000000
5177, 60.000000, 440.000000, 32.000000
5178, 64.000000, 440.000000, 32.000000
5179, 68.000000, 440.000000, 32.000000
5180, 72.000000, 440.000000, 32.000000
5181, 36.000000, 444.000000, 32.000000
5182, 40.000000, 444.000000, 32.000000
5183, 44.000000, 444.000000, 32.000000
5184, 48.000000, 444.000000, 32.000000
5185, 52.000000, 444.000000, 32.000000
5186, 56.000000, 444.000000, 32.000000
5187, 60.000000, 444.000000, 32.000000
5188, 64.000000, 444.000000, 32.000000
5189, 68.000000, 444.000000, 32.000000
5190, 72.000000, 444.000000, 32.000000
5191, 36.000000, 448.000000, 32.000000
5192, 40.000000, 448.000000, 32.000000
5193, 44.000000, 448.000000, 32.000000
5194, 48.000000, 448.000000, 32.000000
5195, 52.000000, 448.000000, 32.000000
5196, 56.000000, 448.000000, 32.000000
5197, 60.000000, 448.000000, 32.000000
5198, 64.000000, 448.000000, 32.000000
5199, 68.000000, 448.000000, 32.000000
5200, 72.000000, 448.000000, 32.000000
5201, 36.000000, 452.000000, 32.000000
5202, 40.000000, 452.000000, 32.000000
5203, 44.000000, 452.000000, 32.000000
5204, 48.000000, 452.000000, 32.000000
5205, 52.000000, 452.000000, 32.000000
5206, 56.000000, 452.000000, 32.000000
5207, 60.000000, 452.000000, 32.000000
5208, 64.000000, 452.000000, 32.000000
5209, 68.000000, 452.000000, 32.000000
5210, 72.000000, 452.000000, 32.000000
5211, 36.000000, 456.000000, 32.000000
5212, 40.000000, 456.000000, 32.000000
5213, 44.000000, 456.000000, 32.000000
5214, 48.000000, 456.000000, 32.000000
5215, 52.000000, 456.000000, 32.000000
5216, 56.000000, 456.000000, 32.000000
5217, 60.000000, 456.000000, 32.000000
5218, 64.000000, 456.000000, 32.000000
5219, 68.000000, 456.000000, 32.000000
5220, 72.000000, 456.000000, 32.000000
5221, 36.000000, 228.000000, 36.000000
5222, 40.000000, 228.000000, 36.000000
5223, 44.000000, 228.000000, 36.000000
5224, 48.000000, 228.000000, 36.000000
5225, 52.000000, 228.000000, 36.000000
5226, 56.000000, 228.000000, 36.000000
5227, 60.000000, 228.000000, 36.000000
5228, 64.000000, 228.000000, 36.000000
5229, 68.000000, 228.000000, 36.000000
5230, 72.000000, 228.000000, 36.000000
5231, 36.000000, 232.000000, 36.000000
5232, 40.000000, 232.000000, 36.000000
5233, 44.000000, 232.000000, 36.000000
5234, 48.000000, 232.000000, 36.000000
5235, 52.000000, 232.000000, 36.000000
5236, 56.000000, 232.000000, 36.000000
5237, 60.000000, 232.000000, 36.000000
5238, 64.000000, 232.000000, 36.000000
5239, 68.000000, 232.000000, 36.000000
5240, 72.000000, 232.000000, 36.000000
5241, 36.000000, 236.000000, 36.000000
5242, 40.000000, 236.000000, 36.000000
5243, 44.000000, 236.000000, 36.000000
5244, 48.000000, 236.000000, 36.000000
5245, 52.000000, 236.000000, 36.000000
5246, 56.000000, 236.000000, 36.000000
5247, 60.000000, 236.000000, 36.000000
5248, 64.000000, 236.000000, 36.000000
5249, 68.000000, 236.000000, 36.000000
5250, 72.000000, 236.000000, 36.000000
5251, 36.000000, 240.000000, 36.000000
5252, 40.000000, 240.000000, 36.000000
5253, 44.000000, 240.000000, 36.000000
5254, 48.000000, 240.000000, 36.000000
5255, 52.000000, 240.000000, 36.000000
5256, 56.000000, 240.000000, 36.000000
5257, 60.000000, 240.000000, 36.000000
5258, 64.000000, 240.000000, 36.000000
5259, 68.000000, 240.000000, 36.000000
5260, 72.000000, 240.000000, 36.000000
5261, 36.000000, 244.000000, 36.000000
5262, 40.000000, 244.000000, 36.000000
5263, 44.000000, 244.000000, 36.000000
5264, 48.000000, 244.000000, 36.000000
5265, 52.000000, 244.000000, 36.000000
5266, 56.000000, 244.000000, 36.000000
5267, 60.000000, 244.000000, 36.000000
5268, 64.000000, 244.000000, 36.000000
5269, 68.000000, 244.000000, 36.000000
5270, 72.000000, 244.000000, 36.000000
5271, 36.000000, 248.000000, 36.000000
5272, 40.000000, 248.000000, 36.000000
5273, 44.000000, 248.000000, 36.000000
5274, 48.000000, 248.000000, 36.000000
5275, 52.000000, 248.000000, 36.000000
5276, 56.000000, 248.000000, 36.000000
5277, 60.000000, 248.000000, 36.000000
5278, 64.000000, 248.000000, 36.000000
5279, 68.000000, 248.000000, 36.000000
5280, 72.000000, 248.000000, 36.000000
5281, 36.000000, 252.000000, 36.000000
5282, 40.000000, 252.000000, 36.000000
5283, 44.000000, 252.000000, 36.000000
5284, 48.000000, 252.000000, 36.000000
5285, 52.000000, 252.000000, 36.000000
5286, 56.000000, 252.000000, 36.000000
5287, 60.000000, 252.000000, 36.000000
5288, 64.000000, 252.000000, 36.000000
5289, 68.000000, 252.000000, 36.000000
5290, 72.000000, 252.000000, 36.000000
5291, 36.000000, 256.000000, 36.000000
5292, 40.000000, 256.000000, 36.000000
5293, 44.000000, 256.000000, 36.000000
5294, 48.000000, 256.000000, 36.000000
5295, 52.000000, 256.000000, 36.000000
5296, 56.000000, 256.000000, 36.000000
5297, 60.000000, 256.000000, 36.000000
5298, 64.000000, 256.000000, 36.000000
5299, 68.000000, 256.000000, 36.000000
5300, 72.000000, 256.000000, 36.000000
5301, 36.000000, 260.000000, 36.000000
5302, 40.000000, 260.000000, 36.000000
5303, 44.000000, 260.000000, 36.000000
5304, 48.000000, 260.000000, 36.000000
5305, 52.000000, 260.000000, 36.000000
5306, 56.000000, 260.000000, 36.000000
5307, 60.000000, 260.000000, 36.000000
5308, 64.000000, 260.000000, 36.000000
5309, 68.000000, 260.000000, 36.000000
5310, 72.000000, 260.000000, 36.000000
5311, 36.000000, 264.000000, 36.000000
5312, 40.000000, 264.000000, 36.000000
5313, 44.000000, 264.000000, 36.000000
5314, 48.000000, 264.000000, 36.000000
5315, 52.000000, 264.000000, 36.000000
5316, 56.000000, 264.000000, 36.000000
5317, 60.000000, 264.000000, 36.000000
5318, 64.000000, 264.000000, 36.000000
5319, 68.000000, 264.000000, 36.000000
5320, 72.000000, 264.000000, 36.000000
5321, 36.000000, 268.000000, 36.000000
5322, 40.000000, 268.000000, 36.000000
5323, 44.000000, 268.000000, 36.000000
5324, 48.000000, 268.000000, 36.000000
5325, 52.000000, 268.000000, 36.000000
5326, 56.000000, 268.000000, 36.000000
5327, 60.000000, 268.000000, 36.000000
5328, 64.000000, 268.000000, 36.000000
5329, 68.000000, 268.000000, 36.000000
5330, 72.000000, 268.000000, 36.000000
5331, 36.000000, 272.000000, 36.000000
5332, 40.000000, 272.000000, 36.000000
5333, 44.000000, 272.000000, 36.000000
5334, 48.000000, 272.000000, 36.000000
5335, 52.000000, 272.000000, 36.000000
5336, 56.000000, 272.000000, 36.000000
5337, 60.000000, 272.000000, 36.000000
5338, 64.000000, 272.000000, 36.000000
5339, 68.000000, 272.000000, 36.000000
5340, 72.000000, 272.000000, 36.000000
5341, 36.000000, 276.000000, 36.000000
5342, 40.000000, 276.000000, 36.000000
5343, 44.000000, 276.000000, 36.000000
5344, 48.000000, 276.000000, 36.000000
5345, 52.000000, 276.000000, 36.000000
5346, 56.000000, 276.000000, 36.000000
5347, 60.000000, 276.000000, 36.000000
5348, 64.000000, 276.000000, 36.000000
5349, 68.000000, 276.000000, 36.000000
5350, 72.000000, 276.000000, 36.000000
5351, 36.000000, 280.000000, 36.000000
5352, 40.000000, 280.000000, 36.000000
5353, 44.000000, 280.000000, 36.000000
5354, 48.000000, 280.000000, 36.000000
5355, 52.000000, 280.000000, 36.000000
5356, 56.000000, 280.000000, 36.000000
5357, 60.000000, 280.000000, 36.000000
5358, 64.000000, 280.000000, 36.000000
5359, 68.000000, 280.000000, 36.000000
5360, 72.000000, 280.000000, 36.000000
5361, 36.000000, 284.000000, 36.000000
5362, 40.000000, 284.000000, 36.000000
5363, 44.000000, 284.000000, 36.000000
5364, 48.000000, 284.000000, 36.000000
5365, 52.000000, 284.000000, 36.000000
5366, 56.000000, 284.000000, 36.000000
5367, 60.000000, 284.000000, 36.000000
5368, 64.000000, 284.000000, 36.000000
5369, 68.000000, 284.000000, 36.000000
5370, 72.000000, 284.000000, 36.000000
5371, 36.000000, 288.000000, 36.000000
5372, 40.000000, 288.000000, 36.000000
5373, 44.000000, 288.000000, 36.000000
5374, 48.000000, 288.000000, 36.000000
5375, 52.000000, 288.000000, 36.000000
5376, 56.000000, 288.000000, 36.000000
5377, 60.000000, 288.000000, 36.000000
5378, 64.000000, 288.000000, 36.000000
5379, 68.000000, 288.000000, 36.000000
5380, 72.000000, 288.000000, 36.000000
5381, 36.000000, 292.000000, 36.000000
5382, 40.000000, 292.000000, 36.000000
5383, 44.000000, 292.000000, 36.000000
5384, 48.000000, 292.000000, 36.000000
5385, 52.000000, 292.000000, 36.000000
5386, 56.000000, 292.000000, 36.000000
5387, 60.000000, 292.000000, 36.000000
5388, 64.000000, 292.000000, 36.000000
5389, 68.000000, 292.000000, 36.000000
5390, 72.000000, 292.000000, 36.000000
5391, 36.000000, 296.000000, 36.000000
5392, 40.000000, 296.000000, 36.000000
5393, 44.000000, 296.000000, 36.000000
5394, 48.000000, 296.000000, 36.000000
5395, 52.000000, 296.000000, 36.000000
5396, 56.000000, 296.000000, 36.000000
5397, 60.000000, 296.000000, 36.000000
5398, 64.000000, 296.000000, 36.000000
5399, 68.000000, 296.000000, 36.000000
5400, 72.000000, 296.000000, 36.000000
5401, 36.000000, 300.000000, 36.000000
5402, 40.000000, 300.000000, 36.000000
5403, 44.000000, 300.000000, 36.000000
5404, 48.000000, 300.000000, 36.000000
5405, 52.000000, 300.000000, 36.000000
5406, 56.000000, 300.000000, 36.000000
5407, 60.000000, 300.000000, 36.000000
5408, 64.000000, 300.000000, 36.000000
5409, 68.000000, 300.000000, 36.000000
5410, 72.000000, 300.000000, 36.000000
5411, 36.000000, 304.000000, 36.000000
5412, 40.000000, 304.000000, 36.000000
5413, 44.000000, 304.000000, 36.000000
5414, 48.000000, 304.000000, 36.000000
5415, 52.000000, 304.000000, 36.000000
5416, 56.000000, 304.000000, 36.000000
5417, 60.000000, 304.000000, 36.000000
5418, 64.000000, 304.000000, 36.000000
5419, 68.000000, 304.000000, 36.000000
5420, 72.000000, 304.000000, 36.000000
5421, 36.000000, 308.000000, 36.000000
5422, 40.000000, 308.000000, 36.000000
5423, 44.000000, 308.000000, 36.000000
5424, 48.000000, 308.000000, 36.000000
5425, 52.000000, 308.000000, 36.000000
5426, 56.000000, 308.000000, 36.000000
5427, 60.000000, 308.000000, 36.000000
5428, 64.000000, 308.000000, 36.000000
5429, 68.000000, 308.000000, 36.000000
5430, 72.000000, 308.000000, 36.000000
5431, 36.000000, 312.000000, 36.000000
5432, 40.000000, 312.000000, 36.000000
5433, 44.000000, 312.000000, 36.000000
5434, 48.000000, 312.000000, 36.000000
5435, 52.000000, 312.000000, 36.000000
5436, 56.000000, 312.000000, 36.000000
5437, 60.000000, 312.000000, 36.000000
5438, 64.000000, 312.000000, 36.000000
5439, 68.000000, 312.000000, 36.000000
5440, 72.000000, 312.000000, 36.000000
5441, 36.000000, 316.000000, 36.000000
5442, 40.000000, 316.000000, 36.000000
5443, 44.000000, 316.000000, 36.000000
5444, 48.000000, 316.000000, 36.000000
5445, 52.000000, 316.000000, 36.000000
5446, 56.000000, 316.000000, 36.000000
5447, 60.000000, 316.000000, 36.000000
5448, 64.000000, 316.000000, 36.000000
5449, 68.000000, 316.000000, 36.000000
5450, 72.000000, 316.000000, 36.000000
5451, 36.000000, 320.000000, 36.000000
5452, 40.000000, 320.000000, 36.000000
5453, 44.000000, 320.000000, 36.000000
5454, 48.000000, 320.000000, 36.000000
5455, 52.000000, 320.000000, 36.000000
5456, 56.000000, 320.000000, 36.000000
5457, 60.000000, 320.000000, 36.000000
5458, 64.000000, 320.000000, 36.000000
5459, 68.000000, 320.000000, 36.000000
5460, 72.000000, 320.000000, 36.000000
5461, 36.000000, 324.000000, 36.000000
5462, 40.000000, 324.000000, 36.000000
5463, 44.000000, 324.000000, 36.000000
5464, 48.000000, 324.000000, 36.000000
5465, 52.000000, 324.000000, 36.000000
5466, 56.000000, 324.000000, 36.000000
5467, 60.000000, 324.000000, 36.000000
5468, 64.000000, 324.000000, 36.000000
5469, 68.000000, 324.000000, 36.000000
5470, 72.000000, 324.000000, 36.000000
5471, 36.000000, 328.000000, 36.000000
5472, 40.000000, 328.000000, 36.000000
5473, 44.000000, 328.000000, 36.000000
5474, 48.000000, 328.000000, 36.000000
5475, 52.000000, 328.000000, 36.000000
5476, 56.000000, 328.000000, 36.000000
5477, 60.000000, 328.000000, 36.000000
5478, 64.000000, 328.000000, 36.000000
5479, 68.000000, 328.000000, 36.000000
5480, 72.000000, 328.000000, 36.000000
5481, 36.000000, 332.000000, 36.000000
5482, 40.000000, 332.000000, 36.000000
5483, 44.000000, 332.000000, 36.000000
5484, 48.000000, 332.000000, 36.000000
5485, 52.000000, 332.000000, 36.000000
5486, 56.000000, 332.000000, 36.000000
5487, 60.000000, 332.000000, 36.000000
5488, 64.000000, 332.000000, 36.000000
5489, 68.000000, 332.000000, 36.000000
5490, 72.000000, 332.000000, 36.000000
5491, 36.000000, 336.000000, 36.000000
5492, 40.000000, 336.000000, 36.000000
5493, 44.000000, 336.000000, 36.000000
5494, 48.000000, 336.000000, 36.000000
5495, 52.000000, 336.000000, 36.000000
5496, 56.000000, 336.000000, 36.000000
5497, 60.000000, 336.000000, 36.000000
5498, 64.000000, 336.000000, 36.000000
5499, 68.000000, 336.000000, 36.000000
5500, 72.000000, 336.000000, 36.000000
5501, 36.000000, 340.000000, 36.000000
5502, 40.000000, 340.000000, 36.000000
5503, 44.000000, 340.000000, 36.000000
5504, 48.000000, 340.000000, 36.000000
5505, 52.000000, 340.000000, 36.000000
5506, 56.000000, 340.000000, 36.000000
5507, 60.000000, 340.000000, 36.000000
5508, 64.000000, 340.000000, 36.000000
5509, 68.000000, 340.000000, 36.000000
5510, 72.000000, 340.000000, 36.000000
5511, 36.000000, 344.000000, 36.000000
5512, 40.000000, 344.000000, 36.000000
5513, 44.000000, 344.000000, 36.000000
5514, 48.000000, 344.000000, 36.000000
5515, 52.000000, 344.000000, 36.000000
5516, 56.000000, 344.000000, 36.000000
5517, 60.000000, 344.000000, 36.000000
5518, 64.000000, 344.000000, 36.000000
5519, 68.000000, 344.000000, 36.000000
5520, 72.000000, 344.000000, 36.000000
5521, 36.000000, 348.000000, 36.000000
5522, 40.000000, 348.000000, 36.000000
5523, 44.000000, 348.000000, 36.000000
5524, 48.000000, 348.000000, 36.000000
5525, 52.000000, 348.000000, 36.000000
5526, 56.000000, 348.000000, 36.000000
5527, 60.000000, 348.000000, 36.000000
5528, 64.000000, 348.000000, 36.000000
5529, 68.000000, 348.000000, 36.000000
5530, 72.000000, 348.000000, 36.000000
5531, 36.000000, 352.000000, 36.000000
5532, 40.000000, 352.000000, 36.000000
5533, 44.000000, 352.000000, 36.000000
5534, 48.000000, 352.000000, 36.000000
5535, 52.000000, 352.000000, 36.000000
5536, 56.000000, 352.000000, 36.000000
5537, 60.000000, 352.000000, 36.000000
5538, 64.000000, 352.000000, 36.000000
5539, 68.000000, 352.000000, 36.000000
5540, 72.000000, 352.000000, 36.000000
5541, 36.000000, 356.000000, 36.000000
5542, 40.000000, 356.000000, 36.000000
5543, 44.000000, 356.000000, 36.000000
5544, 48.000000, 356.000000, 36.000000
5545, 52.000000, 356.000000, 36.000000
5546, 56.000000, 356.000000, 36.000000
5547, 60.000000, 356.000000, 36.000000
5548, 64.000000, 356.000000, 36.000000
5549, 68.000000, 356.000000, 36.000000
5550, 72.000000, 356.000000, 36.000000
5551, 36.000000, 360.000000, 36.000000
5552, 40.000000, 360.000000, 36.000000
5553, 44.000000, 360.000000, 36.000000
5554, 48.000000, 360.000000, 36.000000
5555, 52.000000, 360.000000, 36.000000
5556, 56.000000, 360.000000, 36.000000
5557, 60.000000, 360.000000, 36.000000
5558, 64.000000, 360.000000, 36.000000
5559, 68.000000, 360.000000, 36.000000
5560, 72.000000, 360.000000, 36.000000
5561, 36.000000, 364.000000, 36.000000
5562, 40.000000, 364.000000, 36.000000
5563, 44.000000, 364.000000, 36.000000
5564, 48.000000, 364.000000, 36.000000
5565, 52.000000, 364.000000, 36.000000
5566, 56.000000, 364.000000, 36.000000
5567, 60.000000, 364.000000, 36.000000
5568, 64.000000, 364.000000, 36.000000
5569, 68.000000, 364.000000, 36.000000
5570, 72.000000, 364.000000, 36.000000
5571, 36.000000, 368.000000, 36.000000
5572, 40.000000, 368.000000, 36.000000
5573, 44.000000, 368.000000, 36.000000
5574, 48.000000, 368.000000, 36.000000
5575, 52.000000, 368.000000, 36.000000
5576, 56.000000, 368.000000, 36.000000
5577, 60.000000, 368.000000, 36.000000
5578, 64.000000, 368.000000, 36.000000
5579, 68.000000, 368.000000, 36.000000
5580, 72.000000, 368.000000, 36.000000
5581, 36.000000, 372.000000, 36.000000
5582, 40.000000, 372.000000, 36.000000
5583, 44.000000, 372.000000, 36.000000
5584, 48.000000, 372.000000, 36.000000
5585, 52.000000, 372.000000, 36.000000
5586, 56.000000, 372.000000, 36.000000
5587, 60.000000, 372.000000, 36.000000
5588, 64.000000, 372.000000, 36.000000
5589, 68.000000, 372.000000, 36.000000
5590, 72.000000, 372.000000, 36.000000
5591, 36.000000, 376.000000, 36.000000
5592, 40.000000, 376.000000, 36.000000
5593, 44.000000, 376.000000, 36.000000
5594, 48.000000, 376.000000, 36.000000
5595, 52.000000, 376.000000, 36.000000
5596, 56.000000, 376.000000, 36.000000
5597, 60.000000, 376.000000, 36.000000
5598, 64.000000, 376.000000, 36.000000
5599, 68.000000, 376.000000, 36.000000
5600, 72.000000, 376.000000, 36.000000
5601, 36.000000, 380.000000, 36.000000
5602, 40.000000, 380.000000, 36.000000
5603, 44.000000, 380.000000, 36.000000
5604, 48.000000, 380.000000, 36.000000
5605, 52.000000, 380.000000, 36.000000
5606, 56.000000, 380.000000, 36.000000
5607, 60.000000, 380.000000, 36.000000
5608, 64.000000, 380.000000, 36.000000
5609, 68.000000, 380.000000, 36.000000
5610, 72.000000, 380.000000, 36.000000
5611, 36.000000, 384.000000, 36.000000
5612, 40.000000, 384.000000, 36.000000
5613, 44.000000, 384.000000, 36.000000
5614, 48.000000, 384.000000, 36.000000
5615, 52.000000, 384.000000, 36.000000
5616, 56.000000, 384.000000, 36.000000
5617, 60.000000, 384.000000, 36.000000
5618, 64.000000, 384.000000, 36.000000
5619, 68.000000, 384.000000, 36.000000
5620, 72.000000, 384.000000, 36.000000
5621, 36.000000, 388.000000, 36.000000
5622, 40.000000, 388.000000, 36.000000
5623, 44.000000, 388.000000, 36.000000
5624, 48.000000, 388.000000, 36.000000
5625, 52.000000, 388.000000, 36.000000
5626, 56.000000, 388.000000, 36.000000
5627, 60.000000, 388.000000, 36.000000
5628, 64.000000, 388.000000, 36.000000
5629, 68.000000, 388.000000, 36.000000
5630, 72.000000, 388.000000, 36.000000
5631, 36.000000, 392.000000, 36.000000
5632, 40.000000, 392.000000, 36.000000
5633, 44.000000, 392.000000, 36.000000
5634, 48.000000, 392.000000, 36.000000
5635, 52.000000, 392.000000, 36.000000
5636, 56.000000, 392.000000, 36.000000
5637, 60.000000, 392.000000, 36.000000
5638, 64.000000, 392.000000, 36.000000
5639, 68.000000, 392.000000, 36.000000
5640, 72.000000, 392.000000, 36.000000
5641, 36.000000, 396.000000, 36.000000
5642, 40.000000, 396.000000, 36.000000
5643, 44.000000, 396.000000, 36.000000
5644, 48.000000, 396.000000, 36.000000
5645, 52.000000, 396.000000, 36.000000
5646, 56.000000, 396.000000, 36.000000
5647, 60.000000, 396.000000, 36.000000
5648, 64.000000, 396.000000, 36.000000
5649, 68.000000, 396.000000, 36.000000
5650, 72.000000, 396.000000, 36.000000
5651, 36.000000, 400.000000, 36.000000
5652, 40.000000, 400.000000, 36.000000
5653, 44.000000, 400.000000, 36.000000
5654, 48.000000, 400.000000, 36.000000
5655, 52.000000, 400.000000, 36.000000
5656, 56.000000, 400.000000, 36.000000
5657, 60.000000, 400.000000, 36.000000
5658, 64.000000, 400.000000, 36.000000
5659, 68.000000, 400.000000, 36.000000
5660, 72.000000, 400.000000, 36.000000
5661, 36.000000, 404.000000, 36.000000
5662, 40.000000, 404.000000, 36.000000
5663, 44.000000, 404.000000, 36.000000
5664, 48.000000, 404.000000, 36.000000
5665, 52.000000, 404.000000, 36.000000
5666, 56.000000, 404.000000, 36.000000
5667, 60.000000, 404.000000, 36.000000
5668, 64.000000, 404.000000, 36.000000
5669, 68.000000, 404.000000, 36.000000
5670, 72.000000, 404.000000, 36.000000
5671, 36.000000, 408.000000, 36.000000
5672, 40.000000, 408.000000, 36.000000
5673, 44.000000, 408.000000, 36.000000
5674, 48.000000, 408.000000, 36.000000
5675, 52.000000, 408.000000, 36.000000
5676, 56.000000, 408.000000, 36.000000
5677, 60.000000, 408.000000, 36.000000
5678, 64.000000, 408.000000, 36.000000
5679, 68.000000, 408.000000, 36.000000
5680, 72.000000, 408.000000, 36.000000
5681, 36.000000, 412.000000, 36.000000
5682, 40.000000, 412.000000, 36.000000
5683, 44.000000, 412.000000, 36.000000
5684, 48.000000, 412.000000, 36.000000
5685, 52.000000, 412.000000, 36.000000
5686, 56.000000, 412.000000, 36.000000
5687, 60.000000, 412.000000, 36.000000
5688, 64.000000, 412.000000, 36.000000
5689, 68.000000, 412.000000, 36.000000
5690, 72.000000, 412.000000, 36.000000
5691, 36.000000, 416.000000, 36.000000
5692, 40.000000, 416.000000, 36.000000
5693, 44.000000, 416.000000, 36.000000
5694, 48.000000, 416.000000, 36.000000
5695, 52.000000, 416.000000, 36.000000
5696, 56.000000, 416.000000, 36.000000
5697, 60.000000, 416.000000, 36.000000
5698, 64.000000, 416.000000, 36.000000
5699, 68.000000, 416.000000, 36.000000
5700, 72.000000, 416.000000, 36.000000
5701, 36.000000, 420.000000, 36.000000
5702, 40.000000, 420.000000, 36.000000
5703, 44.000000, 420.000000, 36.000000
5704, 48.000000, 420.000000, 36.000000
5705, 52.000000, 420.000000, 36.000000
5706, 56.000000, 420.000000, 36.000000
5707, 60.000000, 420.000000, 36.000000
5708, 64.000000, 420.000000, 36.000000
5709, 68.000000, 420.000000, 36.000000
5710, 72.000000, 420.000000, 36.000000
5711, 36.000000, 424.000000, 36.000000
5712, 40.000000, 424.000000, 36.000000
5713, 44.000000, 424.000000, 36.000000
5714, 48.000000, 424.000000, 36.000000
5715, 52.000000, 424.000000, 36.000000
5716, 56.000000, 424.000000, 36.000000
5717, 60.000000, 424.000000, 36.000000
5718, 64.000000, 424.000000, 36.000000
5719, 68.000000, 424.000000, 36.000000
5720, 72.000000, 424.000000, 36.000000
5721, 36.000000, 428.000000, 36.000000
5722, 40.000000, 428.000000, 36.000000
5723, 44.000000, 428.000000, 36.000000
5724, 48.000000, 428.000000, 36.000000
5725, 52.000000, 428.000000, 36.000000
5726, 56.000000, 428.000000, 36.000000
5727, 60.000000, 428.000000, 36.000000
5728, 64.000000, 428.000000, 36.000000
5729, 68.000000, 428.000000, 36.000000
5730, 72.000000, 428.000000, 36.000000
5731, 36.000000, 432.000000, 36.000000
5732, 40.000000, 432.000000, 36.000000
5733, 44.000000, 432.000000, 36.000000
5734, 48.000000, 432.000000, 36.000000
5735, 52.000000, 432.000000, 36.000000
5736, 56.000000, 432.000000, 36.000000
5737, 60.000000, 432.000000, 36.000000
5738, 64.000000, 432.000000, 36.000000
5739, 68.000000, 432.000000, 36.000000
5740, 72.000000, 432.000000, 36.000000
5741, 36.000000, 436.000000, 36.000000
5742, 40.000000, 436.000000, 36.000000
5743, 44.000000, 436.000000, 36.000000
5744, 48.000000, 436.000000, 36.000000
5745, 52.000000, 436.000000, 36.000000
5746, 56.000000, 436.000000, 36.000000
5747, 60.000000, 436.000000, 36.000000
5748, 64.000000, 436.000000, 36.000000
5749, 68.000000, 436.000000, 36.000000
5750, 72.000000, 436.000000, 36.000000
5751, 36.000000, 440.000000, 36.000000
5752, 40.000000, 440.000000, 36.000000
5753, 44.000000, 440.000000, 36.000000
5754, 48.000000, 440.000000, 36.000000
5755, 52.000000, 440.000000, 36.000000
5756, 56.000000, 440.000000, 36.000000
5757, 60.000000, 440.000000, 36.000000
5758, 64.000000, 440.000000, 36.000000
5759, 68.000000, 440.000000, 36.000000
5760, 72.000000, 440.000000, 36.000000
5761, 36.000000, 444.000000, 36.000000
5762, 40.000000, 444.000000, 36.000000
5763, 44.000000, 444.000000, 36.000000
5764, 48.000000, 444.000000, 36.000000
5765, 52.000000, 444.000000, 36.000000
5766, 56.000000, 444.000000, 36.000000
5767, 60.000000, 444.000000, 36.000000
5768, 64.000000, 444.000000, 36.000000
5769, 68.000000, 444.000000, 36.000000
5770, 72.000000, 444.000000, 36.000000
5771, 36.000000, 448.000000, 36.000000
5772, 40.000000, 448.000000, 36.000000
5773, 44.000000, 448.000000, 36.000000
5774, 48.000000, 448.000000, 36.000000
5775, 52.000000, 448.000000, 36.000000
5776, 56.000000, 448.000000, 36.000000
5777, 60.000000, 448.000000, 36.000000
5778, 64.000000, 448.000000, 36.000000
5779, 68.000000, 448.000000, 36.000000
5780, 72.000000, 448.000000, 36.000000
5781, 36.000000, 452.000000, 36.000000
5782, 40.000000, 452.000000, 36.000000
5783, 44.000000, 452.000000, 36.000000
5784, 48.000000, 452.000000, 36.000000
5785, 52.000000, 452.000000, 36.000000
5786, 56.000000, 452.000000, 36.000000
5787, 60.000000, 452.000000, 36.000000
5788, 64.000000, 452.000000, 36.000000
5789, 68.000000, 452.000000, 36.000000
5790, 72.000000, 452.000000, 36.000000
5791, 36.000000, 456.000000, 36.000000
5792, 40.000000, 456.000000, 36.000000
5793, 44.000000, 456.000000, 36.000000
5794, 48.000000, 456.000000, 36.000000
5795, 52.000000, 456.000000, 36.000000
5796, 56.000000, 456.000000, 36.000000
5797, 60.000000, 456.000000, 36.000000
5798, 64.000000, 456.000000, 36.000000
5799, 68.000000, 456.000000, 36.000000
5800, 72.000000, 456.000000, 36.000000
5801, 36.000000, 228.000000, 40.000000
5802, 40.000000, 228.000000, 40.000000
5803, 44.000000, 228.000000, 40.000000
5804, 48.000000, 228.000000, 40.000000
5805, 52.000000, 228.000000, 40.000000
5806, 56.000000, 228.000000, 40.000000
5807, 60.000000, 228.000000, 40.000000
5808, 64.000000, 228.000000, 40.000000
5809, 68.000000, 228.000000, 40.000000
5810, 72.000000, 228.000000, 40.000000
5811, 36.000000, 232.000000, 40.000000
5812, 40.000000, 232.000000, 40.000000
5813, 44.000000, 232.000000, 40.000000
5814, 48.000000, 232.000000, 40.000000
5815, 52.000000, 232.000000, 40.000000
5816, 56.000000, 232.000000, 40.000000
5817, 60.000000, 232.000000, 40.000000
5818, 64.000000, 232.000000, 40.000000
5819, 68.000000, 232.000000, 40.000000
5820, 72.000000, 232.000000, 40.000000
5821, 36.000000, 236.000000, 40.000000
5822, 40.000000, 236.000000, 40.000000
5823, 44.000000, 236.000000, 40.000000
5824, 48.000000, 236.000000, 40.000000
5825, 52.000000, 236.000000, 40.000000
5826, 56.000000, 236.000000, 40.000000
5827, 60.000000, 236.000000, 40.000000
5828, 64.000000, 236.000000, 40.000000
5829, 68.000000, 236.000000, 40.000000
5830, 72.000000, 236.000000, 40.000000
5831, 36.000000, 240.000000, 40.000000
5832, 40.000000, 240.000000, 40.000000
5833, 44.000000, 240.000000, 40.000000
5834, 48.000000, 240.000000, 40.000000
5835, 52.000000, 240.000000, 40.000000
5836, 56.000000, 240.000000, 40.000000
5837, 60.000000, 240.000000, 40.000000
5838, 64.000000, 240.000000, 40.000000
5839, 68.000000, 240.000000, 40.000000
5840, 72.000000, 240.000000, 40.000000
5841, 36.000000, 244.000000, 40.000000
5842, 40.000000, 244.000000, 40.000000
5843, 44.000000, 244.000000, 40.000000
5844, 48.000000, 244.000000, 40.000000
5845, 52.000000, 244.000000, 40.000000
5846, 56.000000, 244.000000, 40.000000
5847, 60.000000, 244.000000, 40.000000
5848, 64.000000, 244.000000, 40.000000
5849, 68.000000, 244.000000, 40.000000
5850, 72.000000, 244.000000, 40.000000
5851, 36.000000, 248.000000, 40.000000
5852, 40.000000, 248.000000, 40.000000
5853, 44.000000, 248.000000, 40.000000
5854, 48.000000, 248.000000, 40.000000
5855, 52.000000, 248.000000, 40.000000
5856, 56.000000, 248.000000, 40.000000
5857, 60.000000, 248.000000, 40.000000
5858, 64.000000, 248.000000, 40.000000
5859, 68.000000, 248.000000, 40.000000
5860, 72.000000, 248.000000, 40.000000
5861, 36.000000, 252.000000, 40.000000
5862, 40.000000, 252.000000, 40.000000
5863, 44.000000, 252.000000, 40.000000
5864, 48.000000, 252.000000, 40.000000
5865, 52.000000, 252.000000, 40.000000
5866, 56.000000, 252.000000, 40.000000
5867, 60.000000, 252.000000, 40.000000
5868, 64.000000, 252.000000, 40.000000
5869, 68.000000, 252.000000, 40.000000
5870, 72.000000, 252.000000, 40.000000
5871, 36.000000, 256.000000, 40.000000
5872, 40.000000, 256.000000, 40.000000
5873, 44.000000, 256.000000, 40.000000
5874, 48.000000, 256.000000, 40.000000
5875, 52.000000, 256.000000, 40.000000
5876, 56.000000, 256.000000, 40.000000
5877, 60.000000, 256.000000, 40.000000
5878, 64.000000, 256.000000, 40.000000
5879, 68.000000, 256.000000, 40.000000
5880, 72.000000, 256.000000, 40.000000
5881, 36.000000, 260.000000, 40.000000
5882, 40.000000, 260.000000, 40.000000
5883, 44.000000, 260.000000, 40.000000
5884, 48.000000, 260.000000, 40.000000
5885, 52.000000, 260.000000, 40.000000
5886, 56.000000, 260.000000, 40.000000
5887, 60.000000, 260.000000, 40.000000
5888, 64.000000, 260.000000, 40.000000
5889, 68.000000, 260.000000, 40.000000
5890, 72.000000, 260.000000, 40.000000
5891, 36.000000, 264.000000, 40.000000
5892, 40.000000, 264.000000, 40.000000
5893, 44.000000, 264.000000, 40.000000
5894, 48.000000, 264.000000, 40.000000
5895, 52.000000, 264.000000, 40.000000
5896, 56.000000, 264.000000, 40.000000
5897, 60.000000, 264.000000, 40.000000
5898, 64.000000, 264.000000, 40.000000
5899, 68.000000, 264.000000, 40.000000
5900, 72.000000, 264.000000, 40.000000
5901, 36.000000, 268.000000, 40.000000
5902, 40.000000, 268.000000, 40.000000
5903, 44.000000, 268.000000, 40.000000
5904, 48.000000, 268.000000, 40.000000
5905, 52.000000, 268.000000, 40.000000
5906, 56.000000, 268.000000, 40.000000
5907, 60.000000, 268.000000, 40.000000
5908, 64.000000, 268.000000, 40.000000
5909, 68.000000, 268.000000, 40.000000
5910, 72.000000, 268.000000, 40.000000
5911, 36.000000, 272.000000, 40.000000
5912, 40.000000, 272.000000, 40.000000
5913, 44.000000, 272.000000, 40.000000
5914, 48.000000, 272.000000, 40.000000
5915, 52.000000, 272.000000, 40.000000
5916, 56.000000, 272.000000, 40.000000
5917, 60.000000, 272.000000, 40.000000
5918, 64.000000, 272.000000, 40.000000
5919, 68.000000, 272.000000, 40.000000
5920, 72.000000, 272.000000, 40.000000
5921, 36.000000, 276.000000, 40.000000
5922, 40.000000, 276.000000, 40.000000
5923, 44.000000, 276.000000, 40.000000
5924, 48.000000, 276.000000, 40.000000
5925, 52.000000, 276.000000, 40.000000
5926, 56.000000, 276.000000, 40.000000
5927, 60.000000, 276.000000, 40.000000
5928, 64.000000, 276.000000, 40.000000
5929, 68.000000, 276.000000, 40.000000
5930, 72.000000, 276.000000, 40.000000
5931, 36.000000, 280.000000, 40.000000
5932, 40.000000, 280.000000, 40.000000
5933, 44.000000, 280.000000, 40.000000
5934, 48.000000, 280.000000, 40.000000
5935, 52.000000, 280.000000, 40.000000
5936, 56.000000, 280.000000, 40.000000
5937, 60.000000, 280.000000, 40.000000
5938, 64.000000, 280.000000, 40.000000
5939, 68.000000, 280.000000, 40.000000
5940, 72.000000, 280.000000, 40.000000
5941, 36.000000, 284.000000, 40.000000
5942, 40.000000, 284.000000, 40.000000
5943, 44.000000, 284.000000, 40.000000
5944, 48.000000, 284.000000, 40.000000
5945, 52.000000, 284.000000, 40.000000
5946, 56.000000, 284.000000, 40.000000
5947, 60.000000, 284.000000, 40.000000
5948, 64.000000, 284.000000, 40.000000
5949, 68.000000, 284.000000, 40.000000
5950, 72.000000, 284.000000, 40.000000
5951, 36.000000, 288.000000, 40.000000
5952, 40.000000, 288.000000, 40.000000
5953, 44.000000, 288.000000, 40.000000
5954, 48.000000, 288.000000, 40.000000
5955, 52.000000, 288.000000, 40.000000
5956, 56.000000, 288.000000, 40.000000
5957, 60.000000, 288.000000, 40.000000
5958, 64.000000, 288.000000, 40.000000
5959, 68.000000, 288.000000, 40.000000
5960, 72.000000, 288.000000, 40.000000
5961, 36.000000, 292.000000, 40.000000
5962, 40.000000, 292.000000, 40.000000
5963, 44.000000, 292.000000, 40.000000
5964, 48.000000, 292.000000, 40.000000
5965, 52.000000, 292.000000, 40.000000
5966, 56.000000, 292.000000, 40.000000
5967, 60.000000, 292.000000, 40.000000
5968, 64.000000, 292.000000, 40.000000
5969, 68.000000, 292.000000, 40.000000
5970, 72.000000, 292.000000, 40.000000
5971, 36.000000, 296.000000, 40.000000
5972, 40.000000, 296.000000, 40.000000
5973, 44.000000, 296.000000, 40.000000
5974, 48.000000, 296.000000, 40.000000
5975, 52.000000, 296.000000, 40.000000
5976, 56.000000, 296.000000, 40.000000
5977, 60.000000, 296.000000, 40.000000
5978, 64.000000, 296.000000, 40.000000
5979, 68.000000, 296.000000, 40.000000
5980, 72.000000, 296.000000, 40.000000
5981, 36.000000, 300.000000, 40.000000
5982, 40.000000, 300.000000, 40.000000
5983, 44.000000, 300.000000, 40.000000
5984, 48.000000, 300.000000, 40.000000
5985, 52.000000, 300.000000, 40.000000
5986, 56.000000, 300.000000, 40.000000
5987, 60.000000, 300.000000, 40.000000
5988, 64.000000, 300.000000, 40.000000
5989, 68.000000, 300.000000, 40.000000
5990, 72.000000, 300.000000, 40.000000
5991, 36.000000, 304.000000, 40.000000
5992, 40.000000, 304.000000, 40.000000
5993, 44.000000, 304.000000, 40.000000
5994, 48.000000, 304.000000, 40.000000
5995, 52.000000, 304.000000, 40.000000
5996, 56.000000, 304.000000, 40.000000
5997, 60.000000, 304.000000, 40.000000
5998, 64.000000, 304.000000, 40.000000
5999, 68.000000, 304.000000, 40.000000
6000, 72.000000, 304.000000, 40.000000
6001, 36.000000, 308.000000, 40.000000
6002, 40.000000, 308.000000, 40.000000
6003, 44.000000, 308.000000, 40.000000
6004, 48.000000, 308.000000, 40.000000
6005, 52.000000, 308.000000, 40.000000
6006, 56.000000, 308.000000, 40.000000
6007, 60.000000, 308.000000, 40.000000
6008, 64.000000, 308.000000, 40.000000
6009, 68.000000, 308.000000, 40.000000
6010, 72.000000, 308.000000, 40.000000
6011, 36.000000, 312.000000, 40.000000
6012, 40.000000, 312.000000, 40.000000
6013, 44.000000, 312.000000, 40.000000
6014, 48.000000, 312.000000, 40.000000
6015, 52.000000, 312.000000, 40.000000
6016, 56.000000, 312.000000, 40.000000
6017, 60.000000, 312.000000, 40.000000
6018, 64.000000, 312.000000, 40.000000
6019, 68.000000, 312.000000, 40.000000
6020, 72.000000, 312.000000, 40.000000
6021, 36.000000, 316.000000, 40.000000
6022, 40.000000, 316.000000, 40.000000
6023, 44.000000, 316.000000, 40.000000
6024, 48.000000, 316.000000, 40.000000
6025, 52.000000, 316.000000, 40.000000
6026, 56.000000, 316.000000, 40.000000
6027, 60.000000, 316.000000, 40.000000
6028, 64.000000, 316.000000, 40.000000
6029, 68.000000, 316.000000, 40.000000
6030, 72.000000, 316.000000, 40.000000
6031, 36.000000, 320.000000, 40.000000
6032, 40.000000, 320.000000, 40.000000
6033, 44.000000, 320.000000, 40.000000
6034, 48.000000, 320.000000, 40.000000
6035, 52.000000, 320.000000, 40.000000
6036, 56.000000, 320.000000, 40.000000
6037, 60.000000, 320.000000, 40.000000
6038, 64.000000, 320.000000, 40.000000
6039, 68.000000, 320.000000, 40.000000
6040, 72.000000, 320.000000, 40.000000
6041, 36.000000, 324.000000, 40.000000
6042, 40.000000, 324.000000, 40.000000
6043, 44.000000, 324.000000, 40.000000
6044, 48.000000, 324.000000, 40.000000
6045, 52.000000, 324.000000, 40.000000
6046, 56.000000, 324.000000, 40.000000
6047, 60.000000, 324.000000, 40.000000
6048, 64.000000, 324.000000, 40.000000
6049, 68.000000, 324.000000, 40.000000
6050, 72.000000, 324.000000, 40.000000
6051, 36.000000, 328.000000, 40.000000
6052, 40.000000, 328.000000, 40.000000
6053, 44.000000, 328.000000, 40.000000
6054, 48.000000, 328.000000, 40.000000
6055, 52.000000, 328.000000, 40.000000
6056, 56.000000, 328.000000, 40.000000
6057, 60.000000, 328.000000, 40.000000
6058, 64.000000, 328.000000, 40.000000
6059, 68.000000, 328.000000, 40.000000
6060, 72.000000, 328.000000, 40.000000
6061, 36.000000, 332.000000, 40.000000
6062, 40.000000, 332.000000, 40.000000
6063, 44.000000, 332.000000, 40.000000
6064, 48.000000, 332.000000, 40.000000
6065, 52.000000, 332.000000, 40.000000
6066, 56.000000, 332.000000, 40.000000
6067, 60.000000, 332.000000, 40.000000
6068, 64.000000, 332.000000, 40.000000
6069, 68.000000, 332.000000, 40.000000
6070, 72.000000, 332.000000, 40.000000
6071, 36.000000, 336.000000, 40.000000
6072, 40.000000, 336.000000, 40.000000
6073, 44.000000, 336.000000, 40.000000
6074, 48.000000, 336.000000, 40.000000
6075, 52.000000, 336.000000, 40.000000
6076, 56.000000, 336.000000, 40.000000
6077, 60.000000, 336.000000, 40.000000
6078, 64.000000, 336.000000, 40.000000
6079, 68.000000, 336.000000, 40.000000
6080, 72.000000, 336.000000, 40.000000
6081, 36.000000, 340.000000, 40.000000
6082, 40.000000, 340.000000, 40.000000
6083, 44.000000, 340.000000, 40.000000
6084, 48.000000, 340.000000, 40.000000
6085, 52.000000, 340.000000, 40.000000
6086, 56.000000, 340.000000, 40.000000
6087, 60.000000, 340.000000, 40.000000
6088, 64.000000, 340.000000, 40.000000
6089, 68.000000, 340.000000, 40.000000
6090, 72.000000, 340.000000, 40.000000
6091, 36.000000, 344.000000, 40.000000
6092, 40.000000, 344.000000, 40.000000
6093, 44.000000, 344.000000, 40.000000
6094, 48.000000, 344.000000, 40.000000
6095, 52.000000, 344.000000, 40.000000
6096, 56.000000, 344.000000, 40.000000
6097, 60.000000, 344.000000, 40.000000
6098, 64.000000, 344.000000, 40.000000
6099, 68.000000, 344.000000, 40.000000
6100, 72.000000, 344.000000, 40.000000
6101, 36.000000, 348.000000, 40.000000
6102, 40.000000, 348.000000, 40.000000
6103, 44.000000, 348.000000, 40.000000
6104, 48.000000, 348.000000, 40.000000
6105, 52.000000, 348.000000, 40.000000
6106, 56.000000, 348.000000, 40.000000
6107, 60.000000, 348.000000, 40.000000
6108, 64.000000, 348.000000, 40.000000
6109, 68.000000, 348.000000, 40.000000
6110, 72.000000, 348.000000, 40.000000
6111, 36.000000, 352.000000, 40.000000
6112, 40.000000, 352.000000, 40.000000
6113, 44.000000, 352.000000, 40.000000
6114, 48.000000, 352.000000, 40.000000
6115, 52.000000, 352.000000, 40.000000
6116, 56.000000, 352.000000, 40.000000
6117, 60.000000, 352.000000, 40.000000
6118, 64.000000, 352.000000, 40.000000
6119, 68.000000, 352.000000, 40.000000
6120, 72.000000, 352.000000, 40.000000
6121, 36.000000, 356.000000, 40.000000
6122, 40.000000, 356.000000, 40.000000
6123, 44.000000, 356.000000, 40.000000
6124, 48.000000, 356.000000, 40.000000
6125, 52.000000, 356.000000, 40.000000
6126, 56.000000, 356.000000, 40.000000
6127, 60.000000, 356.000000, 40.000000
6128, 64.000000, 356.000000, 40.000000
6129, 68.000000, 356.000000, 40.000000
6130, 72.000000, 356.000000, 40.000000
6131, 36.000000, 360.000000, 40.000000
6132, 40.000000, 360.000000, 40.000000
6133, 44.000000, 360.000000, 40.000000
6134, 48.000000, 360.000000, 40.000000
6135, 52.000000, 360.000000, 40.000000
6136, 56.000000, 360.000000, 40.000000
6137, 60.000000, 360.000000, 40.000000
6138, 64.000000, 360.000000, 40.000000
6139, 68.000000, 360.000000, 40.000000
6140, 72.000000, 360.000000, 40.000000
6141, 36.000000, 364.000000, 40.000000
6142, 40.000000, 364.000000, 40.000000
6143, 44.000000, 364.000000, 40.000000
6144, 48.000000, 364.000000, 40.000000
6145, 52.000000, 364.000000, 40.000000
6146, 56.000000, 364.000000, 40.000000
6147, 60.000000, 364.000000, 40.000000
6148, 64.000000, 364.000000, 40.000000
6149, 68.000000, 364.000000, 40.000000
6150, 72.000000, 364.000000, 40.000000
6151, 36.000000, 368.000000, 40.000000
6152, 40.000000, 368.000000, 40.000000
6153, 44.000000, 368.000000, 40.000000
6154, 48.000000, 368.000000, 40.000000
6155, 52.000000, 368.000000, 40.000000
6156, 56.000000, 368.000000, 40.000000
6157, 60.000000, 368.000000, 40.000000
6158, 64.000000, 368.000000, 40.000000
6159, 68.000000, 368.000000, 40.000000
6160, 72.000000, 368.000000, 40.000000
6161, 36.000000, 372.000000, 40.000000
6162, 40.000000, 372.000000, 40.000000
6163, 44.000000, 372.000000, 40.000000
6164, 48.000000, 372.000000, 40.000000
6165, 52.000000, 372.000000, 40.000000
6166, 56.000000, 372.000000, 40.000000
6167, 60.000000, 372.000000, 40.000000
6168, 64.000000, 372.000000, 40.000000
6169, 68.000000, 372.000000, 40.000000
6170, 72.000000, 372.000000, 40.000000
6171, 36.000000, 376.000000, 40.000000
6172, 40.000000, 376.000000, 40.000000
6173, 44.000000, 376.000000, 40.000000
6174, 48.000000, 376.000000, 40.000000
6175, 52.000000, 376.000000, 40.000000
6176, 56.000000, 376.000000, 40.000000
6177, 60.000000, 376.000000, 40.000000
6178, 64.000000, 376.000000, 40.000000
6179, 68.000000, 376.000000, 40.000000
6180, 72.000000, 376.000000, 40.000000
6181, 36.000000, 380.000000, 40.000000
6182, 40.000000, 380.000000, 40.000000
6183, 44.000000, 380.000000, 40.000000
6184, 48.000000, 380.000000, 40.000000
6185, 52.000000, 380.000000, 40.000000
6186, 56.000000, 380.000000, 40.000000
6187, 60.000000, 380.000000, 40.000000
6188, 64.000000, 380.000000, 40.000000
6189, 68.000000, 380.000000, 40.000000
6190, 72.000000, 380.000000, 40.000000
6191, 36.000000, 384.000000, 40.000000
6192, 40.000000, 384.000000, 40.000000
6193, 44.000000, 384.000000, 40.000000
6194, 48.000000, 384.000000, 40.000000
6195, 52.000000, 384.000000, 40.000000
6196, 56.000000, 384.000000, 40.000000
6197, 60.000000, 384.000000, 40.000000
6198, 64.000000, 384.000000, 40.000000
6199, 68.000000, 384.000000, 40.000000
6200, 72.000000, 384.000000, 40.000000
6201, 36.000000, 388.000000, 40.000000
6202, 40.000000, 388.000000, 40.000000
6203, 44.000000, 388.000000, 40.000000
6204, 48.000000, 388.000000, 40.000000
6205, 52.000000, 388.000000, 40.000000
6206, 56.000000, 388.000000, 40.000000
6207, 60.000000, 388.000000, 40.000000
6208, 64.000000, 388.000000, 40.000000
6209, 68.000000, 388.000000, 40.000000
6210, 72.000000, 388.000000, 40.000000
6211, 36.000000, 392.000000, 40.000000
6212, 40.000000, 392.000000, 40.000000
6213, 44.000000, 392.000000, 40.000000
6214, 48.000000, 392.000000, 40.000000
6215, 52.000000, 392.000000, 40.000000
6216, 56.000000, 392.000000, 40.000000
6217, 60.000000, 392.000000, 40.000000
6218, 64.000000, 392.000000, 40.000000
6219, 68.000000, 392.000000, 40.000000
6220, 72.000000, 392.000000, 40.000000
6221, 36.000000, 396.000000, 40.000000
6222, 40.000000, 396.000000, 40.000000
6223, 44.000000, 396.000000, 40.000000
6224, 48.000000, 396.000000, 40.000000
6225, 52.000000, 396.000000, 40.000000
6226, 56.000000, 396.000000, 40.000000
6227, 60.000000, 396.000000, 40.000000
6228, 64.000000, 396.000000, 40.000000
6229, 68.000000, 396.000000, 40.000000
6230, 72.000000, 396.000000, 40.000000
6231, 36.000000, 400.000000, 40.000000
6232, 40.000000, 400.000000, 40.000000
6233, 44.000000, 400.000000, 40.000000
6234, 48.000000, 400.000000, 40.000000
6235, 52.000000, 400.000000, 40.000000
6236, 56.000000, 400.000000, 40.000000
6237, 60.000000, 400.000000, 40.000000
6238, 64.000000, 400.000000, 40.000000
6239, 68.000000, 400.000000, 40.000000
6240, 72.000000, 400.000000, 40.000000
6241, 36.000000, 404.000000, 40.000000
6242, 40.000000, 404.000000, 40.000000
6243, 44.000000, 404.000000, 40.000000
6244, 48.000000, 404.000000, 40.000000
6245, 52.000000, 404.000000, 40.000000
6246, 56.000000, 404.000000, 40.000000
6247, 60.000000, 404.000000, 40.000000
6248, 64.000000, 404.000000, 40.000000
6249, 68.000000, 404.000000, 40.000000
6250, 72.000000, 404.000000, 40.000000
6251, 36.000000, 408.000000, 40.000000
6252, 40.000000, 408.000000, 40.000000
6253, 44.000000, 408.000000, 40.000000
6254, 48.000000, 408.000000, 40.000000
6255, 52.000000, 408.000000, 40.000000
6256, 56.000000, 408.000000, 40.000000
6257, 60.000000, 408.000000, 40.000000
6258, 64.000000, 408.000000, 40.000000
6259, 68.000000, 408.000000, 40.000000
6260, 72.000000, 408.000000, 40.000000
6261, 36.000000, 412.000000, 40.000000
6262, 40.000000, 412.000000, 40.000000
6263, 44.000000, 412.000000, 40.000000
6264, 48.000000, 412.000000, 40.000000
6265, 52.000000, 412.000000, 40.000000
6266, 56.000000, 412.000000, 40.000000
6267, 60.000000, 412.000000, 40.000000
6268, 64.000000, 412.000000, 40.000000
6269, 68.000000, 412.000000, 40.000000
6270, 72.000000, 412.000000, 40.000000
6271, 36.000000, 416.000000, 40.000000
6272, 40.000000, 416.000000, 40.000000
6273, 44.000000, 416.000000, 40.000000
6274, 48.000000, 416.000000, 40.000000
6275, 52.000000, 416.000000, 40.000000
6276, 56.000000, 416.000000, 40.000000
6277, 60.000000, 416.000000, 40.000000
6278, 64.000000, 416.000000, 40.000000
6279, 68.000000, 416.000000, 40.000000
6280, 72.000000, 416.000000, 40.000000
6281, 36.000000, 420.000000, 40.000000
6282, 40.000000, 420.000000, 40.000000
6283, 44.000000, 420.000000, 40.000000
6284, 48.000000, 420.000000, 40.000000
6285, 52.000000, 420.000000, 40.000000
6286, 56.000000, 420.000000, 40.000000
6287, 60.000000, 420.000000, 40.000000
6288, 64.000000, 420.000000, 40.000000
6289, 68.000000, 420.000000, 40.000000
6290, 72.000000, 420.000000, 40.000000
6291, 36.000000, 424.000000, 40.000000
6292, 40.000000, 424.000000, 40.000000
6293, 44.000000, 424.000000, 40.000000
6294, 48.000000, 424.000000, 40.000000
6295, 52.000000, 424.000000, 40.000000
6296, 56.000000, 424.000000, 40.000000
6297, 60.000000, 424.000000, 40.000000
6298, 64.000000, 424.000000, 40.000000
6299, 68.000000, 424.000000, 40.000000
6300, 72.000000, 424.000000, 40.000000
6301, 36.000000, 428.000000, 40.000000
6302, 40.000000, 428.000000, 40.000000
6303, 44.000000, 428.000000, 40.000000
6304, 48.000000, 428.000000, 40.000000
6305, 52.000000, 428.000000, 40.000000
6306, 56.000000, 428.000000, 40.000000
6307, 60.000000, 428.000000, 40.000000
6308, 64.000000, 428.000000, 40.000000
6309, 68.000000, 428.000000, 40.000000
6310, 72.000000, 428.000000, 40.000000
6311, 36.000000, 432.000000, 40.000000
6312, 40.000000, 432.000000, 40.000000
6313, 44.000000, 432.000000, 40.000000
6314, 48.000000, 432.000000, 40.000000
6315, 52.000000, 432.000000, 40.000000
6316, 56.000000, 432.000000, 40.000000
6317, 60.000000, 432.000000, 40.000000
6318, 64.000000, 432.000000, 40.000000
6319, 68.000000, 432.000000, 40.000000
6320, 72.000000, 432.000000, 40.000000
6321, 36.000000, 436.000000, 40.000000
6322, 40.000000, 436.000000, 40.000000
6323, 44.000000, 436.000000, 40.000000
6324, 48.000000, 436.000000, 40.000000
6325, 52.000000, 436.000000, 40.000000
6326, 56.000000, 436.000000, 40.000000
6327, 60.000000, 436.000000, 40.000000
6328, 64.000000, 436.000000, 40.000000
6329, 68.000000, 436.000000, 40.000000
6330, 72.000000, 436.000000, 40.000000
6331, 36.000000, 440.000000, 40.000000
6332, 40.000000, 440.000000, 40.000000
6333, 44.000000, 440.000000, 40.000000
6334, 48.000000, 440.000000, 40.000000
6335, 52.000000, 440.000000, 40.000000
6336, 56.000000, 440.000000, 40.000000
6337, 60.000000, 440.000000, 40.000000
6338, 64.000000, 440.000000, 40.000000
6339, 68.000000, 440.000000, 40.000000
6340, 72.000000, 440.000000, 40.000000
6341, 36.000000, 444.000000, 40.000000
6342, 40.000000, 444.000000, 40.000000
6343, 44.000000, 444.000000, 40.000000
6344, 48.000000, 444.000000, 40.000000
6345, 52.000000, 444.000000, 40.000000
6346, 56.000000, 444.000000, 40.000000
6347, 60.000000, 444.000000, 40.000000
6348, 64.000000, 444.000000, 40.000000
6349, 68.000000, 444.000000, 40.000000
6350, 72.000000, 444.000000, 40.000000
6351, 36.000000, 448.000000, 40.000000
6352, 40.000000, 448.000000, 40.000000
6353, 44.000000, 448.000000, 40.000000
6354, 48.000000, 448.000000, 40.000000
6355, 52.000000, 448.000000, 40.000000
6356, 56.000000, 448.000000, 40.000000
6357, 60.000000, 448.000000, 40.000000
6358, 64.000000, 448.000000, 40.000000
6359, 68.000000, 448.000000, 40.000000
6360, 72.000000, 448.000000, 40.000000
6361, 36.000000, 452.000000, 40.000000
6362, 40.000000, 452.000000, 40.000000
6363, 44.000000, 452.000000, 40.000000
6364, 48.000000, 452.000000, 40.000000
6365, 52.000000, 452.000000, 40.000000
6366, 56.000000, 452.000000, 40.000000
6367, 60.000000, 452.000000, 40.000000
6368, 64.000000, 452.000000, 40.000000
6369, 68.000000, 452.000000, 40.000000
6370, 72.000000, 452.000000, 40.000000
6371, 36.000000, 456.000000, 40.000000
6372, 40.000000, 456.000000, 40.000000
6373, 44.000000, 456.000000, 40.000000
6374, 48.000000, 456.000000, 40.000000
6375, 52.000000, 456.000000, 40.000000
6376, 56.000000, 456.000000, 40.000000
6377, 60.000000, 456.000000, 40.000000
6378, 64.000000, 456.000000, 40.000000
6379, 68.000000, 456.000000, 40.000000
6380, 72.000000, 456.000000, 40.000000
6381, 36.000000, 228.000000, 44.000000
6382, 40.000000, 228.000000, 44.000000
6383, 44.000000, 228.000000, 44.000000
6384, 48.000000, 228.000000, 44.000000
6385, 52.000000, 228.000000, 44.000000
6386, 56.000000, 228.000000, 44.000000
6387, 60.000000, 228.000000, 44.000000
6388, 64.000000, 228.000000, 44.000000
6389, 68.000000, 228.000000, 44.000000
6390, 72.000000, 228.000000, 44.000000
6391, 36.000000, 232.000000, 44.000000
6392, 40.000000, 232.000000, 44.000000
6393, 44.000000, 232.000000, 44.000000
6394, 48.000000, 232.000000, 44.000000
6395, 52.000000, 232.000000, 44.000000
6396, 56.000000, 232.000000, 44.000000
6397, 60.000000, 232.000000, 44.000000
6398, 64.000000, 232.000000, 44.000000
6399, 68.000000, 232.000000, 44.000000
6400, 72.000000, 232.000000, 44.000000
6401, 36.000000, 236.000000, 44.000000
6402, 40.000000, 236.000000, 44.000000
6403, 44.000000, 236.000000, 44.000000
6404, 48.000000, 236.000000, 44.000000
6405, 52.000000, 236.000000, 44.000000
6406, 56.000000, 236.000000, 44.000000
6407, 60.000000, 236.000000, 44.000000
6408, 64.000000, 236.000000, 44.000000
6409, 68.000000, 236.000000, 44.000000
6410, 72.000000, 236.000000, 44.000000
6411, 36.000000, 240.000000, 44.000000
6412, 40.000000, 240.000000, 44.000000
6413, 44.000000, 240.000000, 44.000000
6414, 48.000000, 240.000000, 44.000000
6415, 52.000000, 240.000000, 44.000000
6416, 56.000000, 240.000000, 44.000000
6417, 60.000000, 240.000000, 44.000000
6418, 64.000000, 240.000000, 44.000000
6419, 68.000000, 240.000000, 44.000000
6420, 72.000000, 240.000000, 44.000000
6421, 36.000000, 244.000000, 44.000000
6422, 40.000000, 244.000000, 44.000000
6423, 44.000000, 244.000000, 44.000000
6424, 48.000000, 244.000000, 44.000000
6425, 52.000000, 244.000000, 44.000000
6426, 56.000000, 244.000000, 44.000000
6427, 60.000000, 244.000000, 44.000000
6428, 64.000000, 244.000000, 44.000000
6429, 68.000000, 244.000000, 44.000000
6430, 72.000000, 244.000000, 44.000000
6431, 36.000000, 248.000000, 44.000000
6432, 40.000000, 248.000000, 44.000000
6433, 44.000000, 248.000000, 44.000000
6434, 48.000000, 248.000000, 44.000000
6435, 52.000000, 248.000000, 44.000000
6436, 56.000000, 248.000000, 44.000000
6437, 60.000000, 248.000000, 44.000000
6438, 64.000000, 248.000000, 44.000000
6439, 68.000000, 248.000000, 44.000000
6440, 72.000000, 248.000000, 44.000000
6441, 36.000000, 252.000000, 44.000000
6442, 40.000000, 252.000000, 44.000000
6443, 44.000000, 252.000000, 44.000000
6444, 48.000000, 252.000000, 44.000000
6445, 52.000000, 252.000000, 44.000000
6446, 56.000000, 252.000000, 44.000000
6447, 60.000000, 252.000000, 44.000000
6448, 64.000000, 252.000000, 44.000000
6449, 68.000000, 252.000000, 44.000000
6450, 72.000000, 252.000000, 44.000000
6451, 36.000000, 256.000000, 44.000000
6452, 40.000000, 256.000000, 44.000000
6453, 44.000000, 256.000000, 44.000000
6454, 48.000000, 256.000000, 44.000000
6455, 52.000000, 256.000000, 44.000000
6456, 56.000000, 256.000000, 44.000000
6457, 60.000000, 256.000000, 44.000000
6458, 64.000000, 256.000000, 44.000000
6459, 68.000000, 256.000000, 44.000000
6460, 72.000000, 256.000000, 44.000000
6461, 36.000000, 260.000000, 44.000000
6462, 40.000000, 260.000000, 44.000000
6463, 44.000000, 260.000000, 44.000000
6464, 48.000000, 260.000000, 44.000000
6465, 52.000000, 260.000000, 44.000000
6466, 56.000000, 260.000000, 44.000000
6467, 60.000000, 260.000000, 44.000000
6468, 64.000000, 260.000000, 44.000000
6469, 68.000000, 260.000000, 44.000000
6470, 72.000000, 260.000000, 44.000000
6471, 36.000000, 264.000000, 44.000000
6472, 40.000000, 264.000000, 44.000000
6473, 44.000000, 264.000000, 44.000000
6474, 48.000000, 264.000000, 44.000000
6475, 52.000000, 264.000000, 44.000000
6476, 56.000000, 264.000000, 44.000000
6477, 60.000000, 264.000000, 44.000000
6478, 64.000000, 264.000000, 44.000000
6479, 68.000000, 264.000000, 44.000000
6480, 72.000000, 264.000000, 44.000000
6481, 36.000000, 268.000000, 44.000000
6482, 40.000000, 268.000000, 44.000000
6483, 44.000000, 268.000000, 44.000000
6484, 48.000000, 268.000000, 44.000000
6485, 52.000000, 268.000000, 44.000000
6486, 56.000000, 268.000000, 44.000000
6487, 60.000000, 268.000000, 44.000000
6488, 64.000000, 268.000000, 44.000000
6489, 68.000000, 268.000000, 44.000000
6490, 72.000000, 268.000000, 44.000000
6491, 36.000000, 272.000000, 44.000000
6492, 40.000000, 272.000000, 44.000000
6493, 44.000000, 272.000000, 44.000000
6494, 48.000000, 272.000000, 44.000000
6495, 52.000000, 272.000000, 44.000000
6496, 56.000000, 272.000000, 44.000000
6497, 60.000000, 272.000000, 44.000000
6498, 64.000000, 272.000000, 44.000000
6499, 68.000000, 272.000000, 44.000000
6500, 72.000000, 272.000000, 44.000000
6501, 36.000000, 276.000000, 44.000000
6502, 40.000000, 276.000000, 44.000000
6503, 44.000000, 276.000000, 44.000000
6504, 48.000000, 276.000000, 44.000000
6505, 52.000000, 276.000000, 44.000000
6506, 56.000000, 276.000000, 44.000000
6507, 60.000000, 276.000000, 44.000000
6508, 64.000000, 276.000000, 44.000000
6509, 68.000000, 276.000000, 44.000000
6510, 72.000000, 276.000000, 44.000000
6511, 36.000000, 280.000000, 44.000000
6512, 40.000000, 280.000000, 44.000000
6513, 44.000000, 280.000000, 44.000000
6514, 48.000000, 280.000000, 44.000000
6515, 52.000000, 280.000000, 44.000000
6516, 56.000000, 280.000000, 44.000000
6517, 60.000000, 280.000000, 44.000000
6518, 64.000000, 280.000000, 44.000000
6519, 68.000000, 280.000000, 44.000000
6520, 72.000000, 280.000000, 44.000000
6521, 36.000000, 284.000000, 44.000000
6522, 40.000000, 284.000000, 44.000000
6523, 44.000000, 284.000000, 44.000000
6524, 48.000000, 284.000000, 44.000000
6525, 52.000000, 284.000000, 44.000000
6526, 56.000000, 284.000000, 44.000000
6527, 60.000000, 284.000000, 44.000000
6528, 64.000000, 284.000000, 44.000000
6529, 68.000000, 284.000000, 44.000000
6530, 72.000000, 284.000000, 44.000000
6531, 36.000000, 288.000000, 44.000000
6532, 40.000000, 288.000000, 44.000000
6533, 44.000000, 288.000000, 44.000000
6534, 48.000000, 288.000000, 44.000000
6535, 52.000000, 288.000000, 44.000000
6536, 56.000000, 288.000000, 44.000000
6537, 60.000000, 288.000000, 44.000000
6538, 64.000000, 288.000000, 44.000000
6539, 68.000000, 288.000000, 44.000000
6540, 72.000000, 288.000000, 44.000000
6541, 36.000000, 292.000000, 44.000000
6542, 40.000000, 292.000000, 44.000000
6543, 44.000000, 292.000000, 44.000000
6544, 48.000000, 292.000000, 44.000000
6545, 52.000000, 292.000000, 44.000000
6546, 56.000000, 292.000000, 44.000000
6547, 60.000000, 292.000000, 44.000000
6548, 64.000000, 292.000000, 44.000000
6549, 68.000000, 292.000000, 44.000000
6550, 72.000000, 292.000000, 44.000000
6551, 36.000000, 296.000000, 44.000000
6552, 40.000000, 296.000000, 44.000000
6553, 44.000000, 296.000000, 44.000000
6554, 48.000000, 296.000000, 44.000000
6555, 52.000000, 296.000000, 44.000000
6556, 56.000000, 296.000000, 44.000000
6557, 60.000000, 296.000000, 44.000000
6558, 64.000000, 296.000000, 44.000000
6559, 68.000000, 296.000000, 44.000000
6560, 72.000000, 296.000000, 44.000000
6561, 36.000000, 300.000000, 44.000000
6562, 40.000000, 300.000000, 44.000000
6563, 44.000000, 300.000000, 44.000000
6564, 48.000000, 300.000000, 44.000000
6565, 52.000000, 300.000000, 44.000000
6566, 56.000000, 300.000000, 44.000000
6567, 60.000000, 300.000000, 44.000000
6568, 64.000000, 300.000000, 44.000000
6569, 68.000000, 300.000000, 44.000000
6570, 72.000000, 300.000000, 44.000000
6571, 36.000000, 304.000000, 44.000000
6572, 40.000000, 304.000000, 44.000000
6573, 44.000000, 304.000000, 44.000000
6574, 48.000000, 304.000000, 44.000000
6575, 52.000000, 304.000000, 44.000000
6576, 56.000000, 304.000000, 44.000000
6577, 60.000000, 304.000000, 44.000000
6578, 64.000000, 304.000000, 44.000000
6579, 68.000000, 304.000000, 44.000000
6580, 72.000000, 304.000000, 44.000000
6581, 36.000000, 308.000000, 44.000000
6582, 40.000000, 308.000000, 44.000000
6583, 44.000000, 308.000000, 44.000000
6584, 48.000000, 308.000000, 44.000000
6585, 52.000000, 308.000000, 44.000000
6586, 56.000000, 308.000000, 44.000000
6587, 60.000000, 308.000000, 44.000000
6588, 64.000000, 308.000000, 44.000000
6589, 68.000000, 308.000000, 44.000000
6590, 72.000000, 308.000000, 44.000000
6591, 36.000000, 312.000000, 44.000000
6592, 40.000000, 312.000000, 44.000000
6593, 44.000000, 312.000000, 44.000000
6594, 48.000000, 312.000000, 44.000000
6595, 52.000000, 312.000000, 44.000000
6596, 56.000000, 312.000000, 44.000000
6597, 60.000000, 312.000000, 44.000000
6598, 64.000000, 312.000000, 44.000000
6599, 68.000000, 312.000000, 44.000000
6600, 72.000000, 312.000000, 44.000000
6601, 36.000000, 316.000000, 44.000000
6602, 40.000000, 316.000000, 44.000000
6603, 44.000000, 316.000000, 44.000000
6604, 48.000000, 316.000000, 44.000000
6605, 52.000000, 316.000000, 44.000000
6606, 56.000000, 316.000000, 44.000000
6607, 60.000000, 316.000000, 44.000000
6608, 64.000000, 316.000000, 44.000000
6609, 68.000000, 316.000000, 44.000000
6610, 72.000000, 316.000000, 44.000000
6611, 36.000000, 320.000000, 44.000000
6612, 40.000000, 320.000000, 44.000000
6613, 44.000000, 320.000000, 44.000000
6614, 48.000000, 320.000000, 44.000000
6615, 52.000000, 320.000000, 44.000000
6616, 56.000000, 320.000000, 44.000000
6617, 60.000000, 320.000000, 44.000000
6618, 64.000000, 320.000000, 44.000000
6619, 68.000000, 320.000000, 44.000000
6620, 72.000000, 320.000000, 44.000000
6621, 36.000000, 324.000000, 44.000000
6622, 40.000000, 324.000000, 44.000000
6623, 44.000000, 324.000000, 44.000000
6624, 48.000000, 324.000000, 44.000000
6625, 52.000000, 324.000000, 44.000000
6626, 56.000000, 324.000000, 44.000000
6627, 60.000000, 324.000000, 44.000000
6628, 64.000000, 324.000000, 44.000000
6629, 68.000000, 324.000000, 44.000000
6630, 72.000000, 324.000000, 44.000000
6631, 36.000000, 328.000000, 44.000000
6632, 40.000000, 328.000000, 44.000000
6633, 44.000000, 328.000000, 44.000000
6634, 48.000000, 328.000000, 44.000000
6635, 52.000000, 328.000000, 44.000000
6636, 56.000000, 328.000000, 44.000000
6637, 60.000000, 328.000000, 44.000000
6638, 64.000000, 328.000000, 44.000000
6639, 68.000000, 328.000000, 44.000000
6640, 72.000000, 328.000000, 44.000000
6641, 36.000000, 332.000000, 44.000000
6642, 40.000000, 332.000000, 44.000000
6643, 44.000000, 332.000000, 44.000000
6644, 48.000000, 332.000000, 44.000000
6645, 52.000000, 332.000000, 44.000000
6646, 56.000000, 332.000000, 44.000000
6647, 60.000000, 332.000000, 44.000000
6648, 64.000000, 332.000000, 44.000000
6649, 68.000000, 332.000000, 44.000000
6650, 72.000000, 332.000000, 44.000000
6651, 36.000000, 336.000000, 44.000000
6652, 40.000000, 336.000000, 44.000000
6653, 44.000000, 336.000000, 44.000000
6654, 48.000000, 336.000000, 44.000000
6655, 52.000000, 336.000000, 44.000000
6656, 56.000000, 336.000000, 44.000000
6657, 60.000000, 336.000000, 44.000000
6658, 64.000000, 336.000000, 44.000000
6659, 68.000000, 336.000000, 44.000000
6660, 72.000000, 336.000000, 44.000000
6661, 36.000000, 340.000000, 44.000000
6662, 40.000000, 340.000000, 44.000000
6663, 44.000000, 340.000000, 44.000000
6664, 48.000000, 340.000000, 44.000000
6665, 52.000000, 340.000000, 44.000000
6666, 56.000000, 340.000000, 44.000000
6667, 60.000000, 340.000000, 44.000000
6668, 64.000000, 340.000000, 44.000000
6669, 68.000000, 340.000000, 44.000000
6670, 72.000000, 340.000000, 44.000000
6671, 36.000000, 344.000000, 44.000000
6672, 40.000000, 344.000000, 44.000000
6673, 44.000000, 344.000000, 44.000000
6674, 48.000000, 344.000000, 44.000000
6675, 52.000000, 344.000000, 44.000000
6676, 56.000000, 344.000000, 44.000000
6677, 60.000000, 344.000000, 44.000000
6678, 64.000000, 344.000000, 44.000000
6679, 68.000000, 344.000000, 44.000000
6680, 72.000000, 344.000000, 44.000000
6681, 36.000000, 348.000000, 44.000000
6682, 40.000000, 348.000000, 44.000000
6683, 44.000000, 348.000000, 44.000000
6684, 48.000000, 348.000000, 44.000000
6685, 52.000000, 348.000000, 44.000000
6686, 56.000000, 348.000000, 44.000000
6687, 60.000000, 348.000000, 44.000000
6688, 64.000000, 348.000000, 44.000000
6689, 68.000000, 348.000000, 44.000000
6690, 72.000000, 348.000000, 44.000000
6691, 36.000000, 352.000000, 44.000000
6692, 40.000000, 352.000000, 44.000000
6693, 44.000000, 352.000000, 44.000000
6694, 48.000000, 352.000000, 44.000000
6695, 52.000000, 352.000000, 44.000000
6696, 56.000000, 352.000000, 44.000000
6697, 60.000000, 352.000000, 44.000000
6698, 64.000000, 352.000000, 44.000000
6699, 68.000000, 352.000000, 44.000000
6700, 72.000000, 352.000000, 44.000000
6701, 36.000000, 356.000000, 44.000000
6702, 40.000000, 356.000000, 44.000000
6703, 44.000000, 356.000000, 44.000000
6704, 48.000000, 356.000000, 44.000000
6705, 52.000000, 356.000000, 44.000000
6706, 56.000000, 356.000000, 44.000000
6707, 60.000000, 356.000000, 44.000000
6708, 64.000000, 356.000000, 44.000000
6709, 68.000000, 356.000000, 44.000000
6710, 72.000000, 356.000000, 44.000000
6711, 36.000000, 360.000000, 44.000000
6712, 40.000000, 360.000000, 44.000000
6713, 44.000000, 360.000000, 44.000000
6714, 48.000000, 360.000000, 44.000000
6715, 52.000000, 360.000000, 44.000000
6716, 56.000000, 360.000000, 44.000000
6717, 60.000000, 360.000000, 44.000000
6718, 64.000000, 360.000000, 44.000000
6719, 68.000000, 360.000000, 44.000000
6720, 72.000000, 360.000000, 44.000000
6721, 36.000000, 364.000000, 44.000000
6722, 40.000000, 364.000000, 44.000000
6723, 44.000000, 364.000000, 44.000000
6724, 48.000000, 364.000000, 44.000000
6725, 52.000000, 364.000000, 44.000000
6726, 56.000000, 364.000000, 44.000000
6727, 60.000000, 364.000000, 44.000000
6728, 64.000000, 364.000000, 44.000000
6729, 68.000000, 364.000000, 44.000000
6730, 72.000000, 364.000000, 44.000000
6731, 36.000000, 368.000000, 44.000000
6732, 40.000000, 368.000000, 44.000000
6733, 44.000000, 368.000000, 44.000000
6734, 48.000000, 368.000000, 44.000000
6735, 52.000000, 368.000000, 44.000000
6736, 56.000000, 368.000000, 44.000000
6737, 60.000000, 368.000000, 44.000000
6738, 64.000000, 368.000000, 44.000000
6739, 68.000000, 368.000000, 44.000000
6740, 72.000000, 368.000000, 44.000000
6741, 36.000000, 372.000000, 44.000000
6742, 40.000000, 372.000000, 44.000000
6743, 44.000000, 372.000000, 44.000000
6744, 48.000000, 372.000000, 44.000000
6745, 52.000000, 372.000000, 44.000000
6746, 56.000000, 372.000000, 44.000000
6747, 60.000000, 372.000000, 44.000000
6748, 64.000000, 372.000000, 44.000000
6749, 68.000000, 372.000000, 44.000000
6750, 72.000000, 372.000000, 44.000000
6751, 36.000000, 376.000000, 44.000000
6752, 40.000000, 376.000000, 44.000000
6753, 44.000000, 376.000000, 44.000000
6754, 48.000000, 376.000000, 44.000000
6755, 52.000000, 376.000000, 44.000000
6756, 56.000000, 376.000000, 44.000000
6757, 60.000000, 376.000000, 44.000000
6758, 64.000000, 376.000000, 44.000000
6759, 68.000000, 376.000000, 44.000000
6760, 72.000000, 376.000000, 44.000000
6761, 36.000000, 380.000000, 44.000000
6762, 40.000000, 380.000000, 44.000000
6763, 44.000000, 380.000000, 44.000000
6764, 48.000000, 380.000000, 44.000000
6765, 52.000000, 380.000000, 44.000000
6766, 56.000000, 380.000000, 44.000000
6767, 60.000000, 380.000000, 44.000000
6768, 64.000000, 380.000000, 44.000000
6769, 68.000000, 380.000000, 44.000000
6770, 72.000000, 380.000000, 44.000000
6771, 36.000000, 384.000000, 44.000000
6772, 40.000000, 384.000000, 44.000000
6773, 44.000000, 384.000000, 44.000000
6774, 48.000000, 384.000000, 44.000000
6775, 52.000000, 384.000000, 44.000000
6776, 56.000000, 384.000000, 44.000000
6777, 60.000000, 384.000000, 44.000000
6778, 64.000000, 384.000000, 44.000000
6779, 68.000000, 384.000000, 44.000000
6780, 72.000000, 384.000000, 44.000000
6781, 36.000000, 388.000000, 44.000000
6782, 40.000000, 388.000000, 44.000000
6783, 44.000000, 388.000000, 44.000000
6784, 48.000000, 388.000000, 44.000000
6785, 52.000000, 388.000000, 44.000000
6786, 56.000000, 388.000000, 44.000000
6787, 60.000000, 388.000000, 44.000000
6788, 64.000000, 388.000000, 44.000000
6789, 68.000000, 388.000000, 44.000000
6790, 72.000000, 388.000000, 44.000000
6791, 36.000000, 392.000000, 44.000000
6792, 40.000000, 392.000000, 44.000000
6793, 44.000000, 392.000000, 44.000000
6794, 48.000000, 392.000000, 44.000000
6795, 52.000000, 392.000000, 44.000000
6796, 56.000000, 392.000000, 44.000000
6797, 60.000000, 392.000000, 44.000000
6798, 64.000000, 392.000000, 44.000000
6799, 68.000000, 392.000000, 44.000000
6800, 72.000000, 392.000000, 44.000000
6801, 36.000000, 396.000000, 44.000000
6802, 40.000000, 396.000000, 44.000000
6803, 44.000000, 396.000000, 44.000000
6804, 48.000000, 396.000000, 44.000000
6805, 52.000000, 396.000000, 44.000000
6806, 56.000000, 396.000000, 44.000000
6807, 60.000000, 396.000000, 44.000000
6808, 64.000000, 396.000000, 44.000000
6809, 68.000000, 396.000000, 44.000000
6810, 72.000000, 396.000000, 44.000000
6811, 36.000000, 400.000000, 44.000000
6812, 40.000000, 400.000000, 44.000000
6813, 44.000000, 400.000000, 44.000000
6814, 48.000000, 400.000000, 44.000000
6815, 52.000000, 400.000000, 44.000000
6816, 56.000000, 400.000000, 44.000000
6817, 60.000000, 400.000000, 44.000000
6818, 64.000000, 400.000000, 44.000000
6819, 68.000000, 400.000000, 44.000000
6820, 72.000000, 400.000000, 44.000000
6821, 36.000000, 404.000000, 44.000000
6822, 40.000000, 404.000000, 44.000000
6823, 44.000000, 404.000000, 44.000000
6824, 48.000000, 404.000000, 44.000000
6825, 52.000000, 404.000000, 44.000000
6826, 56.000000, 404.000000, 44.000000
6827, 60.000000, 404.000000, 44.000000
6828, 64.000000, 404.000000, 44.000000
6829, 68.000000, 404.000000, 44.000000
6830, 72.000000, 404.000000, 44.000000
6831, 36.000000, 408.000000, 44.000000
6832, 40.000000, 408.000000, 44.000000
6833, 44.000000, 408.000000, 44.000000
6834, 48.000000, 408.000000, 44.000000
6835, 52.000000, 408.000000, 44.000000
6836, 56.000000, 408.000000, 44.000000
6837, 60.000000, 408.000000, 44.000000
6838, 64.000000, 408.000000, 44.000000
6839, 68.000000, 408.000000, 44.000000
6840, 72.000000, 408.000000, 44.000000
6841, 36.000000, 412.000000, 44.000000
6842, 40.000000, 412.000000, 44.000000
6843, 44.000000, 412.000000, 44.000000
6844, 48.000000, 412.000000, 44.000000
6845, 52.000000, 412.000000, 44.000000
6846, 56.000000, 412.000000, 44.000000
6847, 60.000000, 412.000000, 44.000000
6848, 64.000000, 412.000000, 44.000000
6849, 68.000000, 412.000000, 44.000000
6850, 72.000000, 412.000000, 44.000000
6851, 36.000000, 416.000000, 44.000000
6852, 40.000000, 416.000000, 44.000000
6853, 44.000000, 416.000000, 44.000000
6854, 48.000000, 416.000000, 44.000000
6855, 52.000000, 416.000000, 44.000000
6856, 56.000000, 416.000000, 44.000000
6857, 60.000000, 416.000000, 44.000000
6858, 64.000000, 416.000000, 44.000000
6859, 68.000000, 416.000000, 44.000000
6860, 72.000000, 416.000000, 44.000000
6861, 36.000000, 420.000000, 44.000000
6862, 40.000000, 420.000000, 44.000000
6863, 44.000000, 420.000000, 44.000000
6864, 48.000000, 420.000000, 44.000000
6865, 52.000000, 420.000000, 44.000000
6866, 56.000000, 420.000000, 44.000000
6867, 60.000000, 420.000000, 44.000000
6868, 64.000000, 420.000000, 44.000000
6869, 68.000000, 420.000000, 44.000000
6870, 72.000000, 420.000000, 44.000000
6871, 36.000000, 424.000000, 44.000000
6872, 40.000000, 424.000000, 44.000000
6873, 44.000000, 424.000000, 44.000000
6874, 48.000000, 424.000000, 44.000000
6875, 52.000000, 424.000000, 44.000000
6876, 56.000000, 424.000000, 44.000000
6877, 60.000000, 424.000000, 44.000000
6878, 64.000000, 424.000000, 44.000000
6879, 68.000000, 424.000000, 44.000000
6880, 72.000000, 424.000000, 44.000000
6881, 36.000000, 428.000000, 44.000000
6882, 40.000000, 428.000000, 44.000000
6883, 44.000000, 428.000000, 44.000000
6884, 48.000000, 428.000000, 44.000000
6885, 52.000000, 428.000000, 44.000000
6886, 56.000000, 428.000000, 44.000000
6887, 60.000000, 428.000000, 44.000000
6888, 64.000000, 428.000000, 44.000000
6889, 68.000000, 428.000000, 44.000000
6890, 72.000000, 428.000000, 44.000000
6891, 36.000000, 432.000000, 44.000000
6892, 40.000000, 432.000000, 44.000000
6893, 44.000000, 432.000000, 44.000000
6894, 48.000000, 432.000000, 44.000000
6895, 52.000000, 432.000000, 44.000000
6896, 56.000000, 432.000000, 44.000000
6897, 60.000000, 432.000000, 44.000000
6898, 64.000000, 432.000000, 44.000000
6899, 68.000000, 432.000000, 44.000000
6900, 72.000000, 432.000000, 44.000000
6901, 36.000000, 436.000000, 44.000000
6902, 40.000000, 436.000000, 44.000000
6903, 44.000000, 436.000000, 44.000000
6904, 48.000000, 436.000000, 44.000000
6905, 52.000000, 436.000000, 44.000000
6906, 56.000000, 436.000000, 44.000000
6907, 60.000000, 436.000000, 44.000000
6908, 64.000000, 436.000000, 44.000000
6909, 68.000000, 436.000000, 44.000000
6910, 72.000000, 436.000000, 44.000000
6911, 36.000000, 440.000000, 44.000000
6912, 40.000000, 440.000000, 44.000000
6913, 44.000000, 440.000000, 44.000000
6914, 48.000000, 440.000000, 44.000000
6915, 52.000000, 440.000000, 44.000000
6916, 56.000000, 440.000000, 44.000000
6917, 60.000000, 440.000000, 44.000000
6918, 64.000000, 440.000000, 44.000000
6919, 68.000000, 440.000000, 44.000000
6920, 72.000000, 440.000000, 44.000000
6921, 36.000000, 444.000000, 44.000000
6922, 40.000000, 444.000000, 44.000000
6923, 44.000000, 444.000000, 44.000000
6924, 48.000000, 444.000000, 44.000000
6925, 52.000000, 444.000000, 44.000000
6926, 56.000000, 444.000000, 44.000000
6927, 60.000000, 444.000000, 44.000000
6928, 64.000000, 444.000000, 44.000000
6929, 68.000000, 444.000000, 44.000000
6930, 72.000000, 444.000000, 44.000000
6931, 36.000000, 448.000000, 44.000000
6932, 40.000000, 448.000000, 44.000000
6933, 44.000000, 448.000000, 44.000000
6934, 48.000000, 448.000000, 44.000000
6935, 52.000000, 448.000000, 44.000000
6936, 56.000000, 448.000000, 44.000000
6937, 60.000000, 448.000000, 44.000000
6938, 64.000000, 448.000000, 44.000000
6939, 68.000000, 448.000000, 44.000000
6940, 72.000000, 448.000000, 44.000000
6941, 36.000000, 452.000000, 44.000000
6942, 40.000000, 452.000000, 44.000000
6943, 44.000000, 452.000000, 44.000000
6944, 48.000000, 452.000000, 44.000000
6945, 52.000000, 452.000000, 44.000000
6946, 56.000000, 452.000000, 44.000000
6947, 60.000000, 452.000000, 44.000000
6948, 64.000000, 452.000000, 44.000000
6949, 68.000000, 452.000000, 44.000000
6950, 72.000000, 452.000000, 44.000000
6951, 36.000000, 456.000000, 44.000000
6952, 40.000000, 456.000000, 44.000000
6953, 44.000000, 456.000000, 44.000000
6954, 48.000000, 456.000000, 44.000000
6955, 52.000000, 456.000000, 44.000000
6956, 56.000000, 456.000000, 44.000000
6957, 60.000000, 456.000000, 44.000000
6958, 64.000000, 456.000000, 44.000000
6959, 68.000000, 456.000000, 44.000000
6960, 72.000000, 456.000000, 44.000000
6961, 36.000000, 228.000000, 48.000000
6962, 40.000000, 228.000000, 48.000000
6963, 44.000000, 228.000000, 48.000000
6964, 48.000000, 228.000000, 48.000000
6965, 52.000000, 228.000000, 48.000000
6966, 56.000000, 228.000000, 48.000000
6967, 60.000000, 228.000000, 48.000000
6968, 64.000000, 228.000000, 48.000000
6969, 68.000000, 228.000000, 48.000000
6970, 72.000000, 228.000000, 48.000000
6971, 36.000000, 232.000000, 48.000000
6972, 40.000000, 232.000000, 48.000000
6973, 44.000000, 232.000000, 48.000000
6974, 48.000000, 232.000000, 48.000000
6975, 52.000000, 232.000000, 48.000000
6976, 56.000000, 232.000000, 48.000000
6977, 60.000000, 232.000000, 48.000000
6978, 64.000000, 232.000000, 48.000000
6979, 68.000000, 232.000000, 48.000000
6980, 72.000000, 232.000000, 48.000000
6981, 36.000000, 236.000000, 48.000000
6982, 40.000000, 236.000000, 48.000000
6983, 44.000000, 236.000000, 48.000000
6984, 48.000000, 236.000000, 48.000000
6985, 52.000000, 236.000000, 48.000000
6986, 56.000000, 236.000000, 48.000000
6987, 60.000000, 236.000000, 48.000000
6988, 64.000000, 236.000000, 48.000000
6989, 68.000000, 236.000000, 48.000000
6990, 72.000000, 236.000000, 48.000000
6991, 36.000000, 240.000000, 48.000000
6992, 40.000000, 240.000000, 48.000000
6993, 44.000000, 240.000000, 48.000000
6994, 48.000000, 240.000000, 48.000000
6995, 52.000000, 240.000000, 48.000000
6996, 56.000000, 240.000000, 48.000000
6997, 60.000000, 240.000000, 48.000000
6998, 64.000000, 240.000000, 48.000000
6999, 68.000000, 240.000000, 48.000000
7000, 72.000000, 240.000000, 48.000000
7001, 36.000000, 244.000000, 48.000000
7002, 40.000000, 244.000000, 48.000000
7003, 44.000000, 244.000000, 48.000000
7004, 48.000000, 244.000000, 48.000000
7005, 52.000000, 244.000000, 48.000000
7006, 56.000000, 244.000000, 48.000000
7007, 60.000000, 244.000000, 48.000000
7008, 64.000000, 244.000000, 48.000000
7009, 68.000000, 244.000000, 48.000000
7010, 72.000000, 244.000000, 48.000000
7011, 36.000000, 248.000000, 48.000000
7012, 40.000000, 248.000000, 48.000000
7013, 44.000000, 248.000000, 48.000000
7014, 48.000000, 248.000000, 48.000000
7015, 52.000000, 248.000000, 48.000000
7016, 56.000000, 248.000000, 48.000000
7017, 60.000000, 248.000000, 48.000000
7018, 64.000000, 248.000000, 48.000000
7019, 68.000000, 248.000000, 48.000000
7020, 72.000000, 248.000000, 48.000000
7021, 36.000000, 252.000000, 48.000000
7022, 40.000000, 252.000000, 48.000000
7023, 44.000000, 252.000000, 48.000000
7024, 48.000000, 252.000000, 48.000000
7025, 52.000000, 252.000000, 48.000000
7026, 56.000000, 252.000000, 48.000000
7027, 60.000000, 252.000000, 48.000000
7028, 64.000000, 252.000000, 48.000000
7029, 68.000000, 252.000000, 48.000000
7030, 72.000000, 252.000000, 48.000000
7031, 36.000000, 256.000000, 48.000000
7032, 40.000000, 256.000000, 48.000000
7033, 44.000000, 256.000000, 48.000000
7034, 48.000000, 256.000000, 48.000000
7035, 52.000000, 256.000000, 48.000000
7036, 56.000000, 256.000000, 48.000000
7037, 60.000000, 256.000000, 48.000000
7038, 64.000000, 256.000000, 48.000000
7039, 68.000000, 256.000000, 48.000000
7040, 72.000000, 256.000000, 48.000000
7041, 36.000000, 260.000000, 48.000000
7042, 40.000000, 260.000000, 48.000000
7043, 44.000000, 260.000000, 48.000000
7044, 48.000000, 260.000000, 48.000000
7045, 52.000000, 260.000000, 48.000000
7046, 56.000000, 260.000000, 48.000000
7047, 60.000000, 260.000000, 48.000000
7048, 64.000000, 260.000000, 48.000000
7049, 68.000000, 260.000000, 48.000000
7050, 72.000000, 260.000000, 48.000000
7051, 36.000000, 264.000000, 48.000000
7052, 40.000000, 264.000000, 48.000000
7053, 44.000000, 264.000000, 48.000000
7054, 48.000000, 264.000000, 48.000000
7055, 52.000000, 264.000000, 48.000000
7056, 56.000000, 264.000000, 48.000000
7057, 60.000000, 264.000000, 48.000000
7058, 64.000000, 264.000000, 48.000000
7059, 68.000000, 264.000000, 48.000000
7060, 72.000000, 264.000000, 48.000000
7061, 36.000000, 268.000000, 48.000000
7062, 40.000000, 268.000000, 48.000000
7063, 44.000000, 268.000000, 48.000000
7064, 48.000000, 268.000000, 48.000000
7065, 52.000000, 268.000000, 48.000000
7066, 56.000000, 268.000000, 48.000000
7067, 60.000000, 268.000000, 48.000000
7068, 64.000000, 268.000000, 48.000000
7069, 68.000000, 268.000000, 48.000000
7070, 72.000000, 268.000000, 48.000000
7071, 36.000000, 272.000000, 48.000000
7072, 40.000000, 272.000000, 48.000000
7073, 44.000000, 272.000000, 48.000000
7074, 48.000000, 272.000000, 48.000000
7075, 52.000000, 272.000000, 48.000000
7076, 56.000000, 272.000000, 48.000000
7077, 60.000000, 272.000000, 48.000000
7078, 64.000000, 272.000000, 48.000000
7079, 68.000000, 272.000000, 48.000000
7080, 72.000000, 272.000000, 48.000000
7081, 36.000000, 276.000000, 48.000000
7082, 40.000000, 276.000000, 48.000000
7083, 44.000000, 276.000000, 48.000000
7084, 48.000000, 276.000000, 48.000000
7085, 52.000000, 276.000000, 48.000000
7086, 56.000000, 276.000000, 48.000000
7087, 60.000000, 276.000000, 48.000000
7088, 64.000000, 276.000000, 48.000000
7089, 68.000000, 276.000000, 48.000000
7090, 72.000000, 276.000000, 48.000000
7091, 36.000000, 280.000000, 48.000000
7092, 40.000000, 280.000000, 48.000000
7093, 44.000000, 280.000000, 48.000000
7094, 48.000000, 280.000000, 48.000000
7095, 52.000000, 280.000000, 48.000000
7096, 56.000000, 280.000000, 48.000000
7097, 60.000000, 280.000000, 48.000000
7098, 64.000000, 280.000000, 48.000000
7099, 68.000000, 280.000000, 48.000000
7100, 72.000000, 280.000000, 48.000000
7101, 36.000000, 284.000000, 48.000000
7102, 40.000000, 284.000000, 48.000000
7103, 44.000000, 284.000000, 48.000000
7104, 48.000000, 284.000000, 48.000000
7105, 52.000000, 284.000000, 48.000000
7106, 56.000000, 284.000000, 48.000000
7107, 60.000000, 284.000000, 48.000000
7108, 64.000000, 284.000000, 48.000000
7109, 68.000000, 284.000000, 48.000000
7110, 72.000000, 284.000000, 48.000000
7111, 36.000000, 288.000000, 48.000000
7112, 40.000000, 288.000000, 48.000000
7113, 44.000000, 288.000000, 48.000000
7114, 48.000000, 288.000000, 48.000000
7115, 52.000000, 288.000000, 48.000000
7116, 56.000000, 288.000000, 48.000000
7117, 60.000000, 288.000000, 48.000000
7118, 64.000000, 288.000000, 48.000000
7119, 68.000000, 288.000000, 48.000000
7120, 72.000000, 288.000000, 48.000000
7121, 36.000000, 292.000000, 48.000000
7122, 40.000000, 292.000000, 48.000000
7123, 44.000000, 292.000000, 48.000000
7124, 48.000000, 292.000000, 48.000000
7125, 52.000000, 292.000000, 48.000000
7126, 56.000000, 292.000000, 48.000000
7127, 60.000000, 292.000000, 48.000000
7128, 64.000000, 292.000000, 48.000000
7129, 68.000000, 292.000000, 48.000000
7130, 72.000000, 292.000000, 48.000000
7131, 36.000000, 296.000000, 48.000000
7132, 40.000000, 296.000000, 48.000000
7133, 44.000000, 296.000000, 48.000000
7134, 48.000000, 296.000000, 48.000000
7135, 52.000000, 296.000000, 48.000000
7136, 56.000000, 296.000000, 48.000000
7137, 60.000000, 296.000000, 48.000000
7138, 64.000000, 296.000000, 48.000000
7139, 68.000000, 296.000000, 48.000000
7140, 72.000000, 296.000000, 48.000000
7141, 36.000000, 300.000000, 48.000000
7142, 40.000000, 300.000000, 48.000000
7143, 44.000000, 300.000000, 48.000000
7144, 48.000000, 300.000000, 48.000000
7145, 52.000000, 300.000000, 48.000000
7146, 56.000000, 300.000000, 48.000000
7147, 60.000000, 300.000000, 48.000000
7148, 64.000000, 300.000000, 48.000000
7149, 68.000000, 300.000000, 48.000000
7150, 72.000000, 300.000000, 48.000000
7151, 36.000000, 304.000000, 48.000000
7152, 40.000000, 304.000000, 48.000000
7153, 44.000000, 304.000000, 48.000000
7154, 48.000000, 304.000000, 48.000000
7155, 52.000000, 304.000000, 48.000000
7156, 56.000000, 304.000000, 48.000000
7157, 60.000000, 304.000000, 48.000000
7158, 64.000000, 304.000000, 48.000000
7159, 68.000000, 304.000000, 48.000000
7160, 72.000000, 304.000000, 48.000000
7161, 36.000000, 308.000000, 48.000000
7162, 40.000000, 308.000000, 48.000000
7163, 44.000000, 308.000000, 48.000000
7164, 48.000000, 308.000000, 48.000000
7165, 52.000000, 308.000000, 48.000000
7166, 56.000000, 308.000000, 48.000000
7167, 60.000000, 308.000000, 48.000000
7168, 64.000000, 308.000000, 48.000000
7169, 68.000000, 308.000000, 48.000000
7170, 72.000000, 308.000000, 48.000000
7171, 36.000000, 312.000000, 48.000000
7172, 40.000000, 312.000000, 48.000000
7173, 44.000000, 312.000000, 48.000000
7174, 48.000000, 312.000000, 48.000000
7175, 52.000000, 312.000000, 48.000000
7176, 56.000000, 312.000000, 48.000000
7177, 60.000000, 312.000000, 48.000000
7178, 64.000000, 312.000000, 48.000000
7179, 68.000000, 312.000000, 48.000000
7180, 72.000000, 312.000000, 48.000000
7181, 36.000000, 316.000000, 48.000000
7182, 40.000000, 316.000000, 48.000000
7183, 44.000000, 316.000000, 48.000000
7184, 48.000000, 316.000000, 48.000000
7185, 52.000000, 316.000000, 48.000000
7186, 56.000000, 316.000000, 48.000000
7187, 60.000000, 316.000000, 48.000000
7188, 64.000000, 316.000000, 48.000000
7189, 68.000000, 316.000000, 48.000000
7190, 72.000000, 316.000000, 48.000000
7191, 36.000000, 320.000000, 48.000000
7192, 40.000000, 320.000000, 48.000000
7193, 44.000000, 320.000000, 48.000000
7194, 48.000000, 320.000000, 48.000000
7195, 52.000000, 320.000000, 48.000000
7196, 56.000000, 320.000000, 48.000000
7197, 60.000000, 320.000000, 48.000000
7198, 64.000000, 320.000000, 48.000000
7199, 68.000000, 320.000000, 48.000000
7200, 72.000000, 320.000000, 48.000000
7201, 36.000000, 324.000000, 48.000000
7202, 40.000000, 324.000000, 48.000000
7203, 44.000000, 324.000000, 48.000000
7204, 48.000000, 324.000000, 48.000000
7205, 52.000000, 324.000000, 48.000000
7206, 56.000000, 324.000000, 48.000000
7207, 60.000000, 324.000000, 48.000000
7208, 64.000000, 324.000000, 48.000000
7209, 68.000000, 324.000000, 48.000000
7210, 72.000000, 324.000000, 48.000000
7211, 36.000000, 328.000000, 48.000000
7212, 40.000000, 328.000000, 48.000000
7213, 44.000000, 328.000000, 48.000000
7214, 48.000000, 328.000000, 48.000000
7215, 52.000000, 328.000000, 48.000000
7216, 56.000000, 328.000000, 48.000000
7217, 60.000000, 328.000000, 48.000000
7218, 64.000000, 328.000000, 48.000000
7219, 68.000000, 328.000000, 48.000000
7220, 72.000000, 328.000000, 48.000000
7221, 36.000000, 332.000000, 48.000000
7222, 40.000000, 332.000000, 48.000000
7223, 44.000000, 332.000000, 48.000000
7224, 48.000000, 332.000000, 48.000000
7225, 52.000000, 332.000000, 48.000000
7226, 56.000000, 332.000000, 48.000000
7227, 60.000000, 332.000000, 48.000000
7228, 64.000000, 332.000000, 48.000000
7229, 68.000000, 332.000000, 48.000000
7230, 72.000000, 332.000000, 48.000000
7231, 36.000000, 336.000000, 48.000000
7232, 40.000000, 336.000000, 48.000000
7233, 44.000000, 336.000000, 48.000000
7234, 48.000000, 336.000000, 48.000000
7235, 52.000000, 336.000000, 48.000000
7236, 56.000000, 336.000000, 48.000000
7237, 60.000000, 336.000000, 48.000000
7238, 64.000000, 336.000000, 48.000000
7239, 68.000000, 336.000000, 48.000000
7240, 72.000000, 336.000000, 48.000000
7241, 36.000000, 340.000000, 48.000000
7242, 40.000000, 340.000000, 48.000000
7243, 44.000000, 340.000000, 48.000000
7244, 48.000000, 340.000000, 48.000000
7245, 52.000000, 340.000000, 48.000000
7246, 56.000000, 340.000000, 48.000000
7247, 60.000000, 340.000000, 48.000000
7248, 64.000000, 340.000000, 48.000000
7249, 68.000000, 340.000000, 48.000000
7250, 72.000000, 340.000000, 48.000000
7251, 36.000000, 344.000000, 48.000000
7252, 40.000000, 344.000000, 48.000000
7253, 44.000000, 344.000000, 48.000000
7254, 48.000000, 344.000000, 48.000000
7255, 52.000000, 344.000000, 48.000000
7256, 56.000000, 344.000000, 48.000000
7257, 60.000000, 344.000000, 48.000000
7258, 64.000000, 344.000000, 48.000000
7259, 68.000000, 344.000000, 48.000000
7260, 72.000000, 344.000000, 48.000000
7261, 36.000000, 348.000000, 48.000000
7262, 40.000000, 348.000000, 48.000000
7263, 44.000000, 348.000000, 48.000000
7264, 48.000000, 348.000000, 48.000000
7265, 52.000000, 348.000000, 48.000000
7266, 56.000000, 348.000000, 48.000000
7267, 60.000000, 348.000000, 48.000000
7268, 64.000000, 348.000000, 48.000000
7269, 68.000000, 348.000000, 48.000000
7270, 72.000000, 348.000000, 48.000000
7271, 36.000000, 352.000000, 48.000000
7272, 40.000000, 352.000000, 48.000000
7273, 44.000000, 352.000000, 48.000000
7274, 48.000000, 352.000000, 48.000000
7275, 52.000000, 352.000000, 48.000000
7276, 56.000000, 352.000000, 48.000000
7277, 60.000000, 352.000000, 48.000000
7278, 64.000000, 352.000000, 48.000000
7279, 68.000000, 352.000000, 48.000000
7280, 72.000000, 352.000000, 48.000000
7281, 36.000000, 356.000000, 48.000000
7282, 40.000000, 356.000000, 48.000000
7283, 44.000000, 356.000000, 48.000000
7284, 48.000000, 356.000000, 48.000000
7285, 52.000000, 356.000000, 48.000000
7286, 56.000000, 356.000000, 48.000000
7287, 60.000000, 356.000000, 48.000000
7288, 64.000000, 356.000000, 48.000000
7289, 68.000000, 356.000000, 48.000000
7290, 72.000000, 356.000000, 48.000000
7291, 36.000000, 360.000000, 48.000000
7292, 40.000000, 360.000000, 48.000000
7293, 44.000000, 360.000000, 48.000000
7294, 48.000000, 360.000000, 48.000000
7295, 52.000000, 360.000000, 48.000000
7296, 56.000000, 360.000000, 48.000000
7297, 60.000000, 360.000000, 48.000000
7298, 64.000000, 360.000000, 48.000000
7299, 68.000000, 360.000000, 48.000000
7300, 72.000000, 360.000000, 48.000000
7301, 36.000000, 364.000000, 48.000000
7302, 40.000000, 364.000000, 48.000000
7303, 44.000000, 364.000000, 48.000000
7304, 48.000000, 364.000000, 48.000000
7305, 52.000000, 364.000000, 48.000000
7306, 56.000000, 364.000000, 48.000000
7307, 60.000000, 364.000000, 48.000000
7308, 64.000000, 364.000000, 48.000000
7309, 68.000000, 364.000000, 48.000000
7310, 72.000000, 364.000000, 48.000000
7311, 36.000000, 368.000000, 48.000000
7312, 40.000000, 368.000000, 48.000000
7313, 44.000000, 368.000000, 48.000000
7314, 48.000000, 368.000000, 48.000000
7315, 52.000000, 368.000000, 48.000000
7316, 56.000000, 368.000000, 48.000000
7317, 60.000000, 368.000000, 48.000000
7318, 64.000000, 368.000000, 48.000000
7319, 68.000000, 368.000000, 48.000000
7320, 72.000000, 368.000000, 48.000000
7321, 36.000000, 372.000000, 48.000000
7322, 40.000000, 372.000000, 48.000000
7323, 44.000000, 372.000000, 48.000000
7324, 48.000000, 372.000000, 48.000000
7325, 52.000000, 372.000000, 48.000000
7326, 56.000000, 372.000000, 48.000000
7327, 60.000000, 372.000000, 48.000000
7328, 64.000000, 372.000000, 48.000000
7329, 68.000000, 372.000000, 48.000000
7330, 72.000000, 372.000000, 48.000000
7331, 36.000000, 376.000000, 48.000000
7332, 40.000000, 376.000000, 48.000000
7333, 44.000000, 376.000000, 48.000000
7334, 48.000000, 376.000000, 48.000000
7335, 52.000000, 376.000000, 48.000000
7336, 56.000000, 376.000000, 48.000000
7337, 60.000000, 376.000000, 48.000000
7338, 64.000000, 376.000000, 48.000000
7339, 68.000000, 376.000000, 48.000000
7340, 72.000000, 376.000000, 48.000000
7341, 36.000000, 380.000000, 48.000000
7342, 40.000000, 380.000000, 48.000000
7343, 44.000000, 380.000000, 48.000000
7344, 48.000000, 380.000000, 48.000000
7345, 52.000000, 380.000000, 48.000000
7346, 56.000000, 380.000000, 48.000000
7347, 60.000000, 380.000000, 48.000000
7348, 64.000000, 380.000000, 48.000000
7349, 68.000000, 380.000000, 48.000000
7350, 72.000000, 380.000000, 48.000000
7351, 36.000000, 384.000000, 48.000000
7352, 40.000000, 384.000000, 48.000000
7353, 44.000000, 384.000000, 48.000000
7354, 48.000000, 384.000000, 48.000000
7355, 52.000000, 384.000000, 48.000000
7356, 56.000000, 384.000000, 48.000000
7357, 60.000000, 384.000000, 48.000000
7358, 64.000000, 384.000000, 48.000000
7359, 68.000000, 384.000000, 48.000000
7360, 72.000000, 384.000000, 48.000000
7361, 36.000000, 388.000000, 48.000000
7362, 40.000000, 388.000000, 48.000000
7363, 44.000000, 388.000000, 48.000000
7364, 48.000000, 388.000000, 48.000000
7365, 52.000000, 388.000000, 48.000000
7366, 56.000000, 388.000000, 48.000000
7367, 60.000000, 388.000000, 48.000000
7368, 64.000000, 388.000000, 48.000000
7369, 68.000000, 388.000000, 48.000000
7370, 72.000000, 388.000000, 48.000000
7371, 36.000000, 392.000000, 48.000000
7372, 40.000000, 392.000000, 48.000000
7373, 44.000000, 392.000000, 48.000000
7374, 48.000000, 392.000000, 48.000000
7375, 52.000000, 392.000000, 48.000000
7376, 56.000000, 392.000000, 48.000000
7377, 60.000000, 392.000000, 48.000000
7378, 64.000000, 392.000000, 48.000000
7379, 68.000000, 392.000000, 48.000000
7380, 72.000000, 392.000000, 48.000000
7381, 36.000000, 396.000000, 48.000000
7382, 40.000000, 396.000000, 48.000000
7383, 44.000000, 396.000000, 48.000000
7384, 48.000000, 396.000000, 48.000000
7385, 52.000000, 396.000000, 48.000000
7386, 56.000000, 396.000000, 48.000000
7387, 60.000000, 396.000000, 48.000000
7388, 64.000000, 396.000000, 48.000000
7389, 68.000000, 396.000000, 48.000000
7390, 72.000000, 396.000000, 48.000000
7391, 36.000000, 400.000000, 48.000000
7392, 40.000000, 400.000000, 48.000000
7393, 44.000000, 400.000000, 48.000000
7394, 48.000000, 400.000000, 48.000000
7395, 52.000000, 400.000000, 48.000000
7396, 56.000000, 400.000000, 48.000000
7397, 60.000000, 400.000000, 48.000000
7398, 64.000000, 400.000000, 48.000000
7399, 68.000000, 400.000000, 48.000000
7400, 72.000000, 400.000000, 48.000000
7401, 36.000000, 404.000000, 48.000000
7402, 40.000000, 404.000000, 48.000000
7403, 44.000000, 404.000000, 48.000000
7404, 48.000000, 404.000000, 48.000000
7405, 52.000000, 404.000000, 48.000000
7406, 56.000000, 404.000000, 48.000000
7407, 60.000000, 404.000000, 48.000000
7408, 64.000000, 404.000000, 48.000000
7409, 68.000000, 404.000000, 48.000000
7410, 72.000000, 404.000000, 48.000000
7411, 36.000000, 408.000000, 48.000000
7412, 40.000000, 408.000000, 48.000000
7413, 44.000000, 408.000000, 48.000000
7414, 48.000000, 408.000000, 48.000000
7415, 52.000000, 408.000000, 48.000000
7416, 56.000000, 408.000000, 48.000000
7417, 60.000000, 408.000000, 48.000000
7418, 64.000000, 408.000000, 48.000000
7419, 68.000000, 408.000000, 48.000000
7420, 72.000000, 408.000000, 48.000000
7421, 36.000000, 412.000000, 48.000000
7422, 40.000000, 412.000000, 48.000000
7423, 44.000000, 412.000000, 48.000000
7424, 48.000000, 412.000000, 48.000000
7425, 52.000000, 412.000000, 48.000000
7426, 56.000000, 412.000000, 48.000000
7427, 60.000000, 412.000000, 48.000000
7428, 64.000000, 412.000000, 48.000000
7429, 68.000000, 412.000000, 48.000000
7430, 72.000000, 412.000000, 48.000000
7431, 36.000000, 416.000000, 48.000000
7432, 40.000000, 416.000000, 48.000000
7433, 44.000000, 416.000000, 48.000000
7434, 48.000000, 416.000000, 48.000000
7435, 52.000000, 416.000000, 48.000000
7436, 56.000000, 416.000000, 48.000000
7437, 60.000000, 416.000000, 48.000000
7438, 64.000000, 416.000000, 48.000000
7439, 68.000000, 416.000000, 48.000000
7440, 72.000000, 416.000000, 48.000000
7441, 36.000000, 420.000000, 48.000000
7442, 40.000000, 420.000000, 48.000000
7443, 44.000000, 420.000000, 48.000000
7444, 48.000000, 420.000000, 48.000000
7445, 52.000000, 420.000000, 48.000000
7446, 56.000000, 420.000000, 48.000000
7447, 60.000000, 420.000000, 48.000000
7448, 64.000000, 420.000000, 48.000000
7449, 68.000000, 420.000000, 48.000000
7450, 72.000000, 420.000000, 48.000000
7451, 36.000000, 424.000000, 48.000000
7452, 40.000000, 424.000000, 48.000000
7453, 44.000000, 424.000000, 48.000000
7454, 48.000000, 424.000000, 48.000000
7455, 52.000000, 424.000000, 48.000000
7456, 56.000000, 424.000000, 48.000000
7457, 60.000000, 424.000000, 48.000000
7458, 64.000000, 424.000000, 48.000000
7459, 68.000000, 424.000000, 48.000000
7460, 72.000000, 424.000000, 48.000000
7461, 36.000000, 428.000000, 48.000000
7462, 40.000000, 428.000000, 48.000000
7463, 44.000000, 428.000000, 48.000000
7464, 48.000000, 428.000000, 48.000000
7465, 52.000000, 428.000000, 48.000000
7466, 56.000000, 428.000000, 48.000000
7467, 60.000000, 428.000000, 48.000000
7468, 64.000000, 428.000000, 48.000000
7469, 68.000000, 428.000000, 48.000000
7470, 72.000000, 428.000000, 48.000000
7471, 36.000000, 432.000000, 48.000000
7472, 40.000000, 432.000000, 48.000000
7473, 44.000000, 432.000000, 48.000000
7474, 48.000000, 432.000000, 48.000000
7475, 52.000000, 432.000000, 48.000000
7476, 56.000000, 432.000000, 48.000000
7477, 60.000000, 432.000000, 48.000000
7478, 64.000000, 432.000000, 48.000000
7479, 68.000000, 432.000000, 48.000000
7480, 72.000000, 432.000000, 48.000000
7481, 36.000000, 436.000000, 48.000000
7482, 40.000000, 436.000000, 48.000000
7483, 44.000000, 436.000000, 48.000000
7484, 48.000000, 436.000000, 48.000000
7485, 52.000000, 436.000000, 48.000000
7486, 56.000000, 436.000000, 48.000000
7487, 60.000000, 436.000000, 48.000000
7488, 64.000000, 436.000000, 48.000000
7489, 68.000000, 436.000000, 48.000000
7490, 72.000000, 436.000000, 48.000000
7491, 36.000000, 440.000000, 48.000000
7492, 40.000000, 440.000000, 48.000000
7493, 44.000000, 440.000000, 48.000000
7494, 48.000000, 440.000000, 48.000000
7495, 52.000000, 440.000000, 48.000000
7496, 56.000000, 440.000000, 48.000000
7497, 60.000000, 440.000000, 48.000000
7498, 64.000000, 440.000000, 48.000000
7499, 68.000000, 440.000000, 48.000000
7500, 72.000000, 440.000000, 48.000000
7501, 36.000000, 444.000000, 48.000000
7502, 40.000000, 444.000000, 48.000000
7503, 44.000000, 444.000000, 48.000000
7504, 48.000000, 444.000000, 48.000000
7505, 52.000000, 444.000000, 48.000000
7506, 56.000000, 444.000000, 48.000000
7507, 60.000000, 444.000000, 48.000000
7508, 64.000000, 444.000000, 48.000000
7509, 68.000000, 444.000000, 48.000000
7510, 72.000000, 444.000000, 48.000000
7511, 36.000000, 448.000000, 48.000000
7512, 40.000000, 448.000000, 48.000000
7513, 44.000000, 448.000000, 48.000000
7514, 48.000000, 448.000000, 48.000000
7515, 52.000000, 448.000000, 48.000000
7516, 56.000000, 448.000000, 48.000000
7517, 60.000000, 448.000000, 48.000000
7518, 64.000000, 448.000000, 48.000000
7519, 68.000000, 448.000000, 48.000000
7520, 72.000000, 448.000000, 48.000000
7521, 36.000000, 452.000000, 48.000000
7522, 40.000000, 452.000000, 48.000000
7523, 44.000000, 452.000000, 48.000000
7524, 48.000000, 452.000000, 48.000000
7525, 52.000000, 452.000000, 48.000000
7526, 56.000000, 452.000000, 48.000000
7527, 60.000000, 452.000000, 48.000000
7528, 64.000000, 452.000000, 48.000000
7529, 68.000000, 452.000000, 48.000000
7530, 72.000000, 452.000000, 48.000000
7531, 36.000000, 456.000000, 48.000000
7532, 40.000000, 456.000000, 48.000000
7533, 44.000000, 456.000000, 48.000000
7534, 48.000000, 456.000000, 48.000000
7535, 52.000000, 456.000000, 48.000000
7536, 56.000000, 456.000000, 48.000000
7537, 60.000000, 456.000000, 48.000000
7538, 64.000000, 456.000000, 48.000000
7539, 68.000000, 456.000000, 48.000000
7540, 72.000000, 456.000000, 48.000000
7541, 36.000000, 228.000000, 52.000000
7542, 40.000000, 228.000000, 52.000000
7543, 44.000000, 228.000000, 52.000000
7544, 48.000000, 228.000000, 52.000000
7545, 52.000000, 228.000000, 52.000000
7546, 56.000000, 228.000000, 52.000000
7547, 60.000000, 228.000000, 52.000000
7548, 64.000000, 228.000000, 52.000000
7549, 68.000000, 228.000000, 52.000000
7550, 72.000000, 228.000000, 52.000000
7551, 36.000000, 232.000000, 52.000000
7552, 40.000000, 232.000000, 52.000000
7553, 44.000000, 232.000000, 52.000000
7554, 48.000000, 232.000000, 52.000000
7555, 52.000000, 232.000000, 52.000000
7556, 56.000000, 232.000000, 52.000000
7557, 60.000000, 232.000000, 52.000000
7558, 64.000000, 232.000000, 52.000000
7559, 68.000000, 232.000000, 52.000000
7560, 72.000000, 232.000000, 52.000000
7561, 36.000000, 236.000000, 52.000000
7562, 40.000000, 236.000000, 52.000000
7563, 44.000000, 236.000000, 52.000000
7564, 48.000000, 236.000000, 52.000000
7565, 52.000000, 236.000000, 52.000000
7566, 56.000000, 236.000000, 52.000000
7567, 60.000000, 236.000000, 52.000000
7568, 64.000000, 236.000000, 52.000000
7569, 68.000000, 236.000000, 52.000000
7570, 72.000000, 236.000000, 52.000000
7571, 36.000000, 240.000000, 52.000000
7572, 40.000000, 240.000000, 52.000000
7573, 44.000000, 240.000000, 52.000000
7574, 48.000000, 240.000000, 52.000000
7575, 52.000000, 240.000000, 52.000000
7576, 56.000000, 240.000000, 52.000000
7577, 60.000000, 240.000000, 52.000000
7578, 64.000000, 240.000000, 52.000000
7579, 68.000000, 240.000000, 52.000000
7580, 72.000000, 240.000000, 52.000000
7581, 36.000000, 244.000000, 52.000000
7582, 40.000000, 244.000000, 52.000000
7583, 44.000000, 244.000000, 52.000000
7584, 48.000000, 244.000000, 52.000000
7585, 52.000000, 244.000000, 52.000000
7586, 56.000000, 244.000000, 52.000000
7587, 60.000000, 244.000000, 52.000000
7588, 64.000000, 244.000000, 52.000000
7589, 68.000000, 244.000000, 52.000000
7590, 72.000000, 244.000000, 52.000000
7591, 36.000000, 248.000000, 52.000000
7592, 40.000000, 248.000000, 52.000000
7593, 44.000000, 248.000000, 52.000000
7594, 48.000000, 248.000000, 52.000000
7595, 52.000000, 248.000000, 52.000000
7596, 56.000000, 248.000000, 52.000000
7597, 60.000000, 248.000000, 52.000000
7598, 64.000000, 248.000000, 52.000000
7599, 68.000000, 248.000000, 52.000000
7600, 72.000000, 248.000000, 52.000000
7601, 36.000000, 252.000000, 52.000000
7602, 40.000000, 252.000000, 52.000000
7603, 44.000000, 252.000000, 52.000000
7604, 48.000000, 252.000000, 52.000000
7605, 52.000000, 252.000000, 52.000000
7606, 56.000000, 252.000000, 52.000000
7607, 60.000000, 252.000000, 52.000000
7608, 64.000000, 252.000000, 52.000000
7609, 68.000000, 252.000000, 52.000000
7610, 72.000000, 252.000000, 52.000000
7611, 36.000000, 256.000000, 52.000000
7612, 40.000000, 256.000000, 52.000000
7613, 44.000000, 256.000000, 52.000000
7614, 48.000000, 256.000000, 52.000000
7615, 52.000000, 256.000000, 52.000000
7616, 56.000000, 256.000000, 52.000000
7617, 60.000000, 256.000000, 52.000000
7618, 64.000000, 256.000000, 52.000000
7619, 68.000000, 256.000000, 52.000000
7620, 72.000000, 256.000000, 52.000000
7621, 36.000000, 260.000000, 52.000000
7622, 40.000000, 260.000000, 52.000000
7623, 44.000000, 260.000000, 52.000000
7624, 48.000000, 260.000000, 52.000000
7625, 52.000000, 260.000000, 52.000000
7626, 56.000000, 260.000000, 52.000000
7627, 60.000000, 260.000000, 52.000000
7628, 64.000000, 260.000000, 52.000000
7629, 68.000000, 260.000000, 52.000000
7630, 72.000000, 260.000000, 52.000000
7631, 36.000000, 264.000000, 52.000000
7632, 40.000000, 264.000000, 52.000000
7633, 44.000000, 264.000000, 52.000000
7634, 48.000000, 264.000000, 52.000000
7635, 52.000000, 264.000000, 52.000000
7636, 56.000000, 264.000000, 52.000000
7637, 60.000000, 264.000000, 52.000000
7638, 64.000000, 264.000000, 52.000000
7639, 68.000000, 264.000000, 52.000000
7640, 72.000000, 264.000000, 52.000000
7641, 36.000000, 268.000000, 52.000000
7642, 40.000000, 268.000000, 52.000000
7643, 44.000000, 268.000000, 52.000000
7644, 48.000000, 268.000000, 52.000000
7645, 52.000000, 268.000000, 52.000000
7646, 56.000000, 268.000000, 52.000000
7647, 60.000000, 268.000000, 52.000000
7648, 64.000000, 268.000000, 52.000000
7649, 68.000000, 268.000000, 52.000000
7650, 72.000000, 268.000000, 52.000000
7651, 36.000000, 272.000000, 52.000000
7652, 40.000000, 272.000000, 52.000000
7653, 44.000000, 272.000000, 52.000000
7654, 48.000000, 272.000000, 52.000000
7655, 52.000000, 272.000000, 52.000000
7656, 56.000000, 272.000000, 52.000000
7657, 60.000000, 272.000000, 52.000000
7658, 64.000000, 272.000000, 52.000000
7659, 68.000000, 272.000000, 52.000000
7660, 72.000000, 272.000000, 52.000000
7661, 36.000000, 276.000000, 52.000000
7662, 40.000000, 276.000000, 52.000000
7663, 44.000000, 276.000000, 52.000000
7664, 48.000000, 276.000000, 52.000000
7665, 52.000000, 276.000000, 52.000000
7666, 56.000000, 276.000000, 52.000000
7667, 60.000000, 276.000000, 52.000000
7668, 64.000000, 276.000000, 52.000000
7669, 68.000000, 276.000000, 52.000000
7670, 72.000000, 276.000000, 52.000000
7671, 36.000000, 280.000000, 52.000000
7672, 40.000000, 280.000000, 52.000000
7673, 44.000000, 280.000000, 52.000000
7674, 48.000000, 280.000000, 52.000000
7675, 52.000000, 280.000000, 52.000000
7676, 56.000000, 280.000000, 52.000000
7677, 60.000000, 280.000000, 52.000000
7678, 64.000000, 280.000000, 52.000000
7679, 68.000000, 280.000000, 52.000000
7680, 72.000000, 280.000000, 52.000000
7681, 36.000000, 284.000000, 52.000000
7682, 40.000000, 284.000000, 52.000000
7683, 44.000000, 284.000000, 52.000000
7684, 48.000000, 284.000000, 52.000000
7685, 52.000000, 284.000000, 52.000000
7686, 56.000000, 284.000000, 52.000000
7687, 60.000000, 284.000000, 52.000000
7688, 64.000000, 284.000000, 52.000000
7689, 68.000000, 284.000000, 52.000000
7690, 72.000000, 284.000000, 52.000000
7691, 36.000000, 288.000000, 52.000000
7692, 40.000000, 288.000000, 52.000000
7693, 44.000000, 288.000000, 52.000000
7694, 48.000000, 288.000000, 52.000000
7695, 52.000000, 288.000000, 52.000000
7696, 56.000000, 288.000000, 52.000000
7697, 60.000000, 288.000000, 52.000000
7698, 64.000000, 288.000000, 52.000000
7699, 68.000000, 288.000000, 52.000000
7700, 72.000000, 288.000000, 52.000000
7701, 36.000000, 292.000000, 52.000000
7702, 40.000000, 292.000000, 52.000000
7703, 44.000000, 292.000000, 52.000000
7704, 48.000000, 292.000000, 52.000000
7705, 52.000000, 292.000000, 52.000000
7706, 56.000000, 292.000000, 52.000000
7707, 60.000000, 292.000000, 52.000000
7708, 64.000000, 292.000000, 52.000000
7709, 68.000000, 292.000000, 52.000000
7710, 72.000000, 292.000000, 52.000000
7711, 36.000000, 296.000000, 52.000000
7712, 40.000000, 296.000000, 52.000000
7713, 44.000000, 296.000000, 52.000000
7714, 48.000000, 296.000000, 52.000000
7715, 52.000000, 296.000000, 52.000000
7716, 56.000000, 296.000000, 52.000000
7717, 60.000000, 296.000000, 52.000000
7718, 64.000000, 296.000000, 52.000000
7719, 68.000000, 296.000000, 52.000000
7720, 72.000000, 296.000000, 52.000000
7721, 36.000000, 300.000000, 52.000000
7722, 40.000000, 300.000000, 52.000000
7723, 44.000000, 300.000000, 52.000000
7724, 48.000000, 300.000000, 52.000000
7725, 52.000000, 300.000000, 52.000000
7726, 56.000000, 300.000000, 52.000000
7727, 60.000000, 300.000000, 52.000000
7728, 64.000000, 300.000000, 52.000000
7729, 68.000000, 300.000000, 52.000000
7730, 72.000000, 300.000000, 52.000000
7731, 36.000000, 304.000000, 52.000000
7732, 40.000000, 304.000000, 52.000000
7733, 44.000000, 304.000000, 52.000000
7734, 48.000000, 304.000000, 52.000000
7735, 52.000000, 304.000000, 52.000000
7736, 56.000000, 304.000000, 52.000000
7737, 60.000000, 304.000000, 52.000000
7738, 64.000000, 304.000000, 52.000000
7739, 68.000000, 304.000000, 52.000000
7740, 72.000000, 304.000000, 52.000000
7741, 36.000000, 308.000000, 52.000000
7742, 40.000000, 308.000000, 52.000000
7743, 44.000000, 308.000000, 52.000000
7744, 48.000000, 308.000000, 52.000000
7745, 52.000000, 308.000000, 52.000000
7746, 56.000000, 308.000000, 52.000000
7747, 60.000000, 308.000000, 52.000000
7748, 64.000000, 308.000000, 52.000000
7749, 68.000000, 308.000000, 52.000000
7750, 72.000000, 308.000000, 52.000000
7751, 36.000000, 312.000000, 52.000000
7752, 40.000000, 312.000000, 52.000000
7753, 44.000000, 312.000000, 52.000000
7754, 48.000000, 312.000000, 52.000000
7755, 52.000000, 312.000000, 52.000000
7756, 56.000000, 312.000000, 52.000000
7757, 60.000000, 312.000000, 52.000000
7758, 64.000000, 312.000000, 52.000000
7759, 68.000000, 312.000000, 52.000000
7760, 72.000000, 312.000000, 52.000000
7761, 36.000000, 316.000000, 52.000000
7762, 40.000000, 316.000000, 52.000000
7763, 44.000000, 316.000000, 52.000000
7764, 48.000000, 316.000000, 52.000000
7765, 52.000000, 316.000000, 52.000000
7766, 56.000000, 316.000000, 52.000000
7767, 60.000000, 316.000000, 52.000000
7768, 64.000000, 316.000000, 52.000000
7769, 68.000000, 316.000000, 52.000000
7770, 72.000000, 316.000000, 52.000000
7771, 36.000000, 320.000000, 52.000000
7772, 40.000000, 320.000000, 52.000000
7773, 44.000000, 320.000000, 52.000000
7774, 48.000000, 320.000000, 52.000000
7775, 52.000000, 320.000000, 52.000000
7776, 56.000000, 320.000000, 52.000000
7777, 60.000000, 320.000000, 52.000000
7778, 64.000000, 320.000000, 52.000000
7779, 68.000000, 320.000000, 52.000000
7780, 72.000000, 320.000000, 52.000000
7781, 36.000000, 324.000000, 52.000000
7782, 40.000000, 324.000000, 52.000000
7783, 44.000000, 324.000000, 52.000000
7784, 48.000000, 324.000000, 52.000000
7785, 52.000000, 324.000000, 52.000000
7786, 56.000000, 324.000000, 52.000000
7787, 60.000000, 324.000000, 52.000000
7788, 64.000000, 324.000000, 52.000000
7789, 68.000000, 324.000000, 52.000000
7790, 72.000000, 324.000000, 52.000000
7791, 36.000000, 328.000000, 52.000000
7792, 40.000000, 328.000000, 52.000000
7793, 44.000000, 328.000000, 52.000000
7794, 48.000000, 328.000000, 52.000000
7795, 52.000000, 328.000000, 52.000000
7796, 56.000000, 328.000000, 52.000000
7797, 60.000000, 328.000000, 52.000000
7798, 64.000000, 328.000000, 52.000000
7799, 68.000000, 328.000000, 52.000000
7800, 72.000000, 328.000000, 52.000000
7801, 36.000000, 332.000000, 52.000000
7802, 40.000000, 332.000000, 52.000000
7803, 44.000000, 332.000000, 52.000000
7804, 48.000000, 332.000000, 52.000000
7805, 52.000000, 332.000000, 52.000000
7806, 56.000000, 332.000000, 52.000000
7807, 60.000000, 332.000000, 52.000000
7808, 64.000000, 332.000000, 52.000000
7809, 68.000000, 332.000000, 52.000000
7810, 72.000000, 332.000000, 52.000000
7811, 36.000000, 336.000000, 52.000000
7812, 40.000000, 336.000000, 52.000000
7813, 44.000000, 336.000000, 52.000000
7814, 48.000000, 336.000000, 52.000000
7815, 52.000000, 336.000000, 52.000000
7816, 56.000000, 336.000000, 52.000000
7817, 60.000000, 336.000000, 52.000000
7818, 64.000000, 336.000000, 52.000000
7819, 68.000000, 336.000000, 52.000000
7820, 72.000000, 336.000000, 52.000000
7821, 36.000000, 340.000000, 52.000000
7822, 40.000000, 340.000000, 52.000000
7823, 44.000000, 340.000000, 52.000000
7824, 48.000000, 340.000000, 52.000000
7825, 52.000000, 340.000000, 52.000000
7826, 56.000000, 340.000000, 52.000000
7827, 60.000000, 340.000000, 52.000000
7828, 64.000000, 340.000000, 52.000000
7829, 68.000000, 340.000000, 52.000000
7830, 72.000000, 340.000000, 52.000000
7831, 36.000000, 344.000000, 52.000000
7832, 40.000000, 344.000000, 52.000000
7833, 44.000000, 344.000000, 52.000000
7834, 48.000000, 344.000000, 52.000000
7835, 52.000000, 344.000000, 52.000000
7836, 56.000000, 344.000000, 52.000000
7837, 60.000000, 344.000000, 52.000000
7838, 64.000000, 344.000000, 52.000000
7839, 68.000000, 344.000000, 52.000000
7840, 72.000000, 344.000000, 52.000000
7841, 36.000000, 348.000000, 52.000000
7842, 40.000000, 348.000000, 52.000000
7843, 44.000000, 348.000000, 52.000000
7844, 48.000000, 348.000000, 52.000000
7845, 52.000000, 348.000000, 52.000000
7846, 56.000000, 348.000000, 52.000000
7847, 60.000000, 348.000000, 52.000000
7848, 64.000000, 348.000000, 52.000000
7849, 68.000000, 348.000000, 52.000000
7850, 72.000000, 348.000000, 52.000000
7851, 36.000000, 352.000000, 52.000000
7852, 40.000000, 352.000000, 52.000000
7853, 44.000000, 352.000000, 52.000000
7854, 48.000000, 352.000000, 52.000000
7855, 52.000000, 352.000000, 52.000000
7856, 56.000000, 352.000000, 52.000000
7857, 60.000000, 352.000000, 52.000000
7858, 64.000000, 352.000000, 52.000000
7859, 68.000000, 352.000000, 52.000000
7860, 72.000000, 352.000000, 52.000000
7861, 36.000000, 356.000000, 52.000000
7862, 40.000000, 356.000000, 52.000000
7863, 44.000000, 356.000000, 52.000000
7864, 48.000000, 356.000000, 52.000000
7865, 52.000000, 356.000000, 52.000000
7866, 56.000000, 356.000000, 52.000000
7867, 60.000000, 356.000000, 52.000000
7868, 64.000000, 356.000000, 52.000000
7869, 68.000000, 356.000000, 52.000000
7870, 72.000000, 356.000000, 52.000000
7871, 36.000000, 360.000000, 52.000000
7872, 40.000000, 360.000000, 52.000000
7873, 44.000000, 360.000000, 52.000000
7874, 48.000000, 360.000000, 52.000000
7875, 52.000000, 360.000000, 52.000000
7876, 56.000000, 360.000000, 52.000000
7877, 60.000000, 360.000000, 52.000000
7878, 64.000000, 360.000000, 52.000000
7879, 68.000000, 360.000000, 52.000000
7880, 72.000000, 360.000000, 52.000000
7881, 36.000000, 364.000000, 52.000000
7882, 40.000000, 364.000000, 52.000000
7883, 44.000000, 364.000000, 52.000000
7884, 48.000000, 364.000000, 52.000000
7885, 52.000000, 364.000000, 52.000000
7886, 56.000000, 364.000000, 52.000000
7887, 60.000000, 364.000000, 52.000000
7888, 64.000000, 364.000000, 52.000000
7889, 68.000000, 364.000000, 52.000000
7890, 72.000000, 364.000000, 52.000000
7891, 36.000000, 368.000000, 52.000000
7892, 40.000000, 368.000000, 52.000000
7893, 44.000000, 368.000000, 52.000000
7894, 48.000000, 368.000000, 52.000000
7895, 52.000000, 368.000000, 52.000000
7896, 56.000000, 368.000000, 52.000000
7897, 60.000000, 368.000000, 52.000000
7898, 64.000000, 368.000000, 52.000000
7899, 68.000000, 368.000000, 52.000000
7900, 72.000000, 368.000000, 52.000000
7901, 36.000000, 372.000000, 52.000000
7902, 40.000000, 372.000000, 52.000000
7903, 44.000000, 372.000000, 52.000000
7904, 48.000000, 372.000000, 52.000000
7905, 52.000000, 372.000000, 52.000000
7906, 56.000000, 372.000000, 52.000000
7907, 60.000000, 372.000000, 52.000000
7908, 64.000000, 372.000000, 52.000000
7909, 68.000000, 372.000000, 52.000000
7910, 72.000000, 372.000000, 52.000000
7911, 36.000000, 376.000000, 52.000000
7912, 40.000000, 376.000000, 52.000000
7913, 44.000000, 376.000000, 52.000000
7914, 48.000000, 376.000000, 52.000000
7915, 52.000000, 376.000000, 52.000000
7916, 56.000000, 376.000000, 52.000000
7917, 60.000000, 376.000000, 52.000000
7918, 64.000000, 376.000000, 52.000000
7919, 68.000000, 376.000000, 52.000000
7920, 72.000000, 376.000000, 52.000000
7921, 36.000000, 380.000000, 52.000000
7922, 40.000000, 380.000000, 52.000000
7923, 44.000000, 380.000000, 52.000000
7924, 48.000000, 380.000000, 52.000000
7925, 52.000000, 380.000000, 52.000000
7926, 56.000000, 380.000000, 52.000000
7927, 60.000000, 380.000000, 52.000000
7928, 64.000000, 380.000000, 52.000000
7929, 68.000000, 380.000000, 52.000000
7930, 72.000000, 380.000000, 52.000000
7931, 36.000000, 384.000000, 52.000000
7932, 40.000000, 384.000000, 52.000000
7933, 44.000000, 384.000000, 52.000000
7934, 48.000000, 384.000000, 52.000000
7935, 52.000000, 384.000000, 52.000000
7936, 56.000000, 384.000000, 52.000000
7937, 60.000000, 384.000000, 52.000000
7938, 64.000000, 384.000000, 52.000000
7939, 68.000000, 384.000000, 52.000000
7940, 72.000000, 384.000000, 52.000000
7941, 36.000000, 388.000000, 52.000000
7942, 40.000000, 388.000000, 52.000000
7943, 44.000000, 388.000000, 52.000000
7944, 48.000000, 388.000000, 52.000000
7945, 52.000000, 388.000000, 52.000000
7946, 56.000000, 388.000000, 52.000000
7947, 60.000000, 388.000000, 52.000000
7948, 64.000000, 388.000000, 52.000000
7949, 68.000000, 388.000000, 52.000000
7950, 72.000000, 388.000000, 52.000000
7951, 36.000000, 392.000000, 52.000000
7952, 40.000000, 392.000000, 52.000000
7953, 44.000000, 392.000000, 52.000000
7954, 48.000000, 392.000000, 52.000000
7955, 52.000000, 392.000000, 52.000000
7956, 56.000000, 392.000000, 52.000000
7957, 60.000000, 392.000000, 52.000000
7958, 64.000000, 392.000000, 52.000000
7959, 68.000000, 392.000000, 52.000000
7960, 72.000000, 392.000000, 52.000000
7961, 36.000000, 396.000000, 52.000000
7962, 40.000000, 396.000000, 52.000000
7963, 44.000000, 396.000000, 52.000000
7964, 48.000000, 396.000000, 52.000000
7965, 52.000000, 396.000000, 52.000000
7966, 56.000000, 396.000000, 52.000000
7967, 60.000000, 396.000000, 52.000000
7968, 64.000000, 396.000000, 52.000000
7969, 68.000000, 396.000000, 52.000000
7970, 72.000000, 396.000000, 52.000000
7971, 36.000000, 400.000000, 52.000000
7972, 40.000000, 400.000000, 52.000000
7973, 44.000000, 400.000000, 52.000000
7974, 48.000000, 400.000000, 52.000000
7975, 52.000000, 400.000000, 52.000000
7976, 56.000000, 400.000000, 52.000000
7977, 60.000000, 400.000000, 52.000000
7978, 64.000000, 400.000000, 52.000000
7979, 68.000000, 400.000000, 52.000000
7980, 72.000000, 400.000000, 52.000000
7981, 36.000000, 404.000000, 52.000000
7982, 40.000000, 404.000000, 52.000000
7983, 44.000000, 404.000000, 52.000000
7984, 48.000000, 404.000000, 52.000000
7985, 52.000000, 404.000000, 52.000000
7986, 56.000000, 404.000000, 52.000000
7987, 60.000000, 404.000000, 52.000000
7988, 64.000000, 404.000000, 52.000000
7989, 68.000000, 404.000000, 52.000000
7990, 72.000000, 404.000000, 52.000000
7991, 36.000000, 408.000000, 52.000000
7992, 40.000000, 408.000000, 52.000000
7993, 44.000000, 408.000000, 52.000000
7994, 48.000000, 408.000000, 52.000000
7995, 52.000000, 408.000000, 52.000000
7996, 56.000000, 408.000000, 52.000000
7997, 60.000000, 408.000000, 52.000000
7998, 64.000000, 408.000000, 52.000000
7999, 68.000000, 408.000000, 52.000000
8000, 72.000000, 408.000000, 52.000000
8001, 36.000000, 412.000000, 52.000000
8002, 40.000000, 412.000000, 52.000000
8003, 44.000000, 412.000000, 52.000000
8004, 48.000000, 412.000000, 52.000000
8005, 52.000000, 412.000000, 52.000000
8006, 56.000000, 412.000000, 52.000000
8007, 60.000000, 412.000000, 52.000000
8008, 64.000000, 412.000000, 52.000000
8009, 68.000000, 412.000000, 52.000000
8010, 72.000000, 412.000000, 52.000000
8011, 36.000000, 416.000000, 52.000000
8012, 40.000000, 416.000000, 52.000000
8013, 44.000000, 416.000000, 52.000000
8014, 48.000000, 416.000000, 52.000000
8015, 52.000000, 416.000000, 52.000000
8016, 56.000000, 416.000000, 52.000000
8017, 60.000000, 416.000000, 52.000000
8018, 64.000000, 416.000000, 52.000000
8019, 68.000000, 416.000000, 52.000000
8020, 72.000000, 416.000000, 52.000000
8021, 36.000000, 420.000000, 52.000000
8022, 40.000000, 420.000000, 52.000000
8023, 44.000000, 420.000000, 52.000000
8024, 48.000000, 420.000000, 52.000000
8025, 52.000000, 420.000000, 52.000000
8026, 56.000000, 420.000000, 52.000000
8027, 60.000000, 420.000000, 52.000000
8028, 64.000000, 420.000000, 52.000000
8029, 68.000000, 420.000000, 52.000000
8030, 72.000000, 420.000000, 52.000000
8031, 36.000000, 424.000000, 52.000000
8032, 40.000000, 424.000000, 52.000000
8033, 44.000000, 424.000000, 52.000000
8034, 48.000000, 424.000000, 52.000000
8035, 52.000000, 424.000000, 52.000000
8036, 56.000000, 424.000000, 52.000000
8037, 60.000000, 424.000000, 52.000000
8038, 64.000000, 424.000000, 52.000000
8039, 68.000000, 424.000000, 52.000000
8040, 72.000000, 424.000000, 52.000000
8041, 36.000000, 428.000000, 52.000000
8042, 40.000000, 428.000000, 52.000000
8043, 44.000000, 428.000000, 52.000000
8044, 48.000000, 428.000000, 52.000000
8045, 52.000000, 428.000000, 52.000000
8046, 56.000000, 428.000000, 52.000000
8047, 60.000000, 428.000000, 52.000000
8048, 64.000000, 428.000000, 52.000000
8049, 68.000000, 428.000000, 52.000000
8050, 72.000000, 428.000000, 52.000000
8051, 36.000000, 432.000000, 52.000000
8052, 40.000000, 432.000000, 52.000000
8053, 44.000000, 432.000000, 52.000000
8054, 48.000000, 432.000000, 52.000000
8055, 52.000000, 432.000000, 52.000000
8056, 56.000000, 432.000000, 52.000000
8057, 60.000000, 432.000000, 52.000000
8058, 64.000000, 432.000000, 52.000000
8059, 68.000000, 432.000000, 52.000000
8060, 72.000000, 432.000000, 52.000000
8061, 36.000000, 436.000000, 52.000000
8062, 40.000000, 436.000000, 52.000000
8063, 44.000000, 436.000000, 52.000000
8064, 48.000000, 436.000000, 52.000000
8065, 52.000000, 436.000000, 52.000000
8066, 56.000000, 436.000000, 52.000000
8067, 60.000000, 436.000000, 52.000000
8068, 64.000000, 436.000000, 52.000000
8069, 68.000000, 436.000000, 52.000000
8070, 72.000000, 436.000000, 52.000000
8071, 36.000000, 440.000000, 52.000000
8072, 40.000000, 440.000000, 52.000000
8073, 44.000000, 440.000000, 52.000000
8074, 48.000000, 440.000000, 52.000000
8075, 52.000000, 440.000000, 52.000000
8076, 56.000000, 440.000000, 52.000000
8077, 60.000000, 440.000000, 52.000000
8078, 64.000000, 440.000000, 52.000000
8079, 68.000000, 440.000000, 52.000000
8080, 72.000000, 440.000000, 52.000000
8081, 36.000000, 444.000000, 52.000000
8082, 40.000000, 444.000000, 52.000000
8083, 44.000000, 444.000000, 52.000000
8084, 48.000000, 444.000000, 52.000000
8085, 52.000000, 444.000000, 52.000000
8086, 56.000000, 444.000000, 52.000000
8087, 60.000000, 444.000000, 52.000000
8088, 64.000000, 444.000000, 52.000000
8089, 68.000000, 444.000000, 52.000000
8090, 72.000000, 444.000000, 52.000000
8091, 36.000000, 448.000000, 52.000000
8092, 40.000000, 448.000000, 52.000000
8093, 44.000000, 448.000000, 52.000000
8094, 48.000000, 448.000000, 52.000000
8095, 52.000000, 448.000000, 52.000000
8096, 56.000000, 448.000000, 52.000000
8097, 60.000000, 448.000000, 52.000000
8098, 64.000000, 448.000000, 52.000000
8099, 68.000000, 448.000000, 52.000000
8100, 72.000000, 448.000000, 52.000000
8101, 36.000000, 452.000000, 52.000000
8102, 40.000000, 452.000000, 52.000000
8103, 44.000000, 452.000000, 52.000000
8104, 48.000000, 452.000000, 52.000000
8105, 52.000000, 452.000000, 52.000000
8106, 56.000000, 452.000000, 52.000000
8107, 60.000000, 452.000000, 52.000000
8108, 64.000000, 452.000000, 52.000000
8109, 68.000000, 452.000000, 52.000000
8110, 72.000000, 452.000000, 52.000000
8111, 36.000000, 456.000000, 52.000000
8112, 40.000000, 456.000000, 52.000000
8113, 44.000000, 456.000000, 52.000000
8114, 48.000000, 456.000000, 52.000000
8115, 52.000000, 456.000000, 52.000000
8116, 56.000000, 456.000000, 52.000000
8117, 60.000000, 456.000000, 52.000000
8118, 64.000000, 456.000000, 52.000000
8119, 68.000000, 456.000000, 52.000000
8120, 72.000000, 456.000000, 52.000000
8121, 36.000000, 228.000000, 56.000000
8122, 40.000000, 228.000000, 56.000000
8123, 44.000000, 228.000000, 56.000000
8124, 48.000000, 228.000000, 56.000000
8125, 52.000000, 228.000000, 56.000000
8126, 56.000000, 228.000000, 56.000000
8127, 60.000000, 228.000000, 56.000000
8128, 64.000000, 228.000000, 56.000000
8129, 68.000000, 228.000000, 56.000000
8130, 72.000000, 228.000000, 56.000000
8131, 36.000000, 232.000000, 56.000000
8132, 40.000000, 232.000000, 56.000000
8133, 44.000000, 232.000000, 56.000000
8134, 48.000000, 232.000000, 56.000000
8135, 52.000000, 232.000000, 56.000000
8136, 56.000000, 232.000000, 56.000000
8137, 60.000000, 232.000000, 56.000000
8138, 64.000000, 232.000000, 56.000000
8139, 68.000000, 232.000000, 56.000000
8140, 72.000000, 232.000000, 56.000000
8141, 36.000000, 236.000000, 56.000000
8142, 40.000000, 236.000000, 56.000000
8143, 44.000000, 236.000000, 56.000000
8144, 48.000000, 236.000000, 56.000000
8145, 52.000000, 236.000000, 56.000000
8146, 56.000000, 236.000000, 56.000000
8147, 60.000000, 236.000000, 56.000000
8148, 64.000000, 236.000000, 56.000000
8149, 68.000000, 236.000000, 56.000000
8150, 72.000000, 236.000000, 56.000000
8151, 36.000000, 240.000000, 56.000000
8152, 40.000000, 240.000000, 56.000000
8153, 44.000000, 240.000000, 56.000000
8154, 48.000000, 240.000000, 56.000000
8155, 52.000000, 240.000000, 56.000000
8156, 56.000000, 240.000000, 56.000000
8157, 60.000000, 240.000000, 56.000000
8158, 64.000000, 240.000000, 56.000000
8159, 68.000000, 240.000000, 56.000000
8160, 72.000000, 240.000000, 56.000000
8161, 36.000000, 244.000000, 56.000000
8162, 40.000000, 244.000000, 56.000000
8163, 44.000000, 244.000000, 56.000000
8164, 48.000000, 244.000000, 56.000000
8165, 52.000000, 244.000000, 56.000000
8166, 56.000000, 244.000000, 56.000000
8167, 60.000000, 244.000000, 56.000000
8168, 64.000000, 244.000000, 56.000000
8169, 68.000000, 244.000000, 56.000000
8170, 72.000000, 244.000000, 56.000000
8171, 36.000000, 248.000000, 56.000000
8172, 40.000000, 248.000000, 56.000000
8173, 44.000000, 248.000000, 56.000000
8174, 48.000000, 248.000000, 56.000000
8175, 52.000000, 248.000000, 56.000000
8176, 56.000000, 248.000000, 56.000000
8177, 60.000000, 248.000000, 56.000000
8178, 64.000000, 248.000000, 56.000000
8179, 68.000000, 248.000000, 56.000000
8180, 72.000000, 248.000000, 56.000000
8181, 36.000000, 252.000000, 56.000000
8182, 40.000000, 252.000000, 56.000000
8183, 44.000000, 252.000000, 56.000000
8184, 48.000000, 252.000000, 56.000000
8185, 52.000000, 252.000000, 56.000000
8186, 56.000000, 252.000000, 56.000000
8187, 60.000000, 252.000000, 56.000000
8188, 64.000000, 252.000000, 56.000000
8189, 68.000000, 252.000000, 56.000000
8190, 72.000000, 252.000000, 56.000000
8191, 36.000000, 256.000000, 56.000000
8192, 40.000000, 256.000000, 56.000000
8193, 44.000000, 256.000000, 56.000000
8194, 48.000000, 256.000000, 56.000000
8195, 52.000000, 256.000000, 56.000000
8196, 56.000000, 256.000000, 56.000000
8197, 60.000000, 256.000000, 56.000000
8198, 64.000000, 256.000000, 56.000000
8199, 68.000000, 256.000000, 56.000000
8200, 72.000000, 256.000000, 56.000000
8201, 36.000000, 260.000000, 56.000000
8202, 40.000000, 260.000000, 56.000000
8203, 44.000000, 260.000000, 56.000000
8204, 48.000000, 260.000000, 56.000000
8205, 52.000000, 260.000000, 56.000000
8206, 56.000000, 260.000000, 56.000000
8207, 60.000000, 260.000000, 56.000000
8208, 64.000000, 260.000000, 56.000000
8209, 68.000000, 260.000000, 56.000000
8210, 72.000000, 260.000000, 56.000000
8211, 36.000000, 264.000000, 56.000000
8212, 40.000000, 264.000000, 56.000000
8213, 44.000000, 264.000000, 56.000000
8214, 48.000000, 264.000000, 56.000000
8215, 52.000000, 264.000000, 56.000000
8216, 56.000000, 264.000000, 56.000000
8217, 60.000000, 264.000000, 56.000000
8218, 64.000000, 264.000000, 56.000000
8219, 68.000000, 264.000000, 56.000000
8220, 72.000000, 264.000000, 56.000000
8221, 36.000000, 268.000000, 56.000000
8222, 40.000000, 268.000000, 56.000000
8223, 44.000000, 268.000000, 56.000000
8224, 48.000000, 268.000000, 56.000000
8225, 52.000000, 268.000000, 56.000000
8226, 56.000000, 268.000000, 56.000000
8227, 60.000000, 268.000000, 56.000000
8228, 64.000000, 268.000000, 56.000000
8229, 68.000000, 268.000000, 56.000000
8230, 72.000000, 268.000000, 56.000000
8231, 36.000000, 272.000000, 56.000000
8232, 40.000000, 272.000000, 56.000000
8233, 44.000000, 272.000000, 56.000000
8234, 48.000000, 272.000000, 56.000000
8235, 52.000000, 272.000000, 56.000000
8236, 56.000000, 272.000000, 56.000000
8237, 60.000000, 272.000000, 56.000000
8238, 64.000000, 272.000000, 56.000000
8239, 68.000000, 272.000000, 56.000000
8240, 72.000000, 272.000000, 56.000000
8241, 36.000000, 276.000000, 56.000000
8242, 40.000000, 276.000000, 56.000000
8243, 44.000000, 276.000000, 56.000000
8244, 48.000000, 276.000000, 56.000000
8245, 52.000000, 276.000000, 56.000000
8246, 56.000000, 276.000000, 56.000000
8247, 60.000000, 276.000000, 56.000000
8248, 64.000000, 276.000000, 56.000000
8249, 68.000000, 276.000000, 56.000000
8250, 72.000000, 276.000000, 56.000000
8251, 36.000000, 280.000000, 56.000000
8252, 40.000000, 280.000000, 56.000000
8253, 44.000000, 280.000000, 56.000000
8254, 48.000000, 280.000000, 56.000000
8255, 52.000000, 280.000000, 56.000000
8256, 56.000000, 280.000000, 56.000000
8257, 60.000000, 280.000000, 56.000000
8258, 64.000000, 280.000000, 56.000000
8259, 68.000000, 280.000000, 56.000000
8260, 72.000000, 280.000000, 56.000000
8261, 36.000000, 284.000000, 56.000000
8262, 40.000000, 284.000000, 56.000000
8263, 44.000000, 284.000000, 56.000000
8264, 48.000000, 284.000000, 56.000000
8265, 52.000000, 284.000000, 56.000000
8266, 56.000000, 284.000000, 56.000000
8267, 60.000000, 284.000000, 56.000000
8268, 64.000000, 284.000000, 56.000000
8269, 68.000000, 284.000000, 56.000000
8270, 72.000000, 284.000000, 56.000000
8271, 36.000000, 288.000000, 56.000000
8272, 40.000000, 288.000000, 56.000000
8273, 44.000000, 288.000000, 56.000000
8274, 48.000000, 288.000000, 56.000000
8275, 52.000000, 288.000000, 56.000000
8276, 56.000000, 288.000000, 56.000000
8277, 60.000000, 288.000000, 56.000000
8278, 64.000000, 288.000000, 56.000000
8279, 68.000000, 288.000000, 56.000000
8280, 72.000000, 288.000000, 56.000000
8281, 36.000000, 292.000000, 56.000000
8282, 40.000000, 292.000000, 56.000000
8283, 44.000000, 292.000000, 56.000000
8284, 48.000000, 292.000000, 56.000000
8285, 52.000000, 292.000000, 56.000000
8286, 56.000000, 292.000000, 56.000000
8287, 60.000000, 292.000000, 56.000000
8288, 64.000000, 292.000000, 56.000000
8289, 68.000000, 292.000000, 56.000000
8290, 72.000000, 292.000000, 56.000000
8291, 36.000000, 296.000000, 56.000000
8292, 40.000000, 296.000000, 56.000000
8293, 44.000000, 296.000000, 56.000000
8294, 48.000000, 296.000000, 56.000000
8295, 52.000000, 296.000000, 56.000000
8296, 56.000000, 296.000000, 56.000000
8297, 60.000000, 296.000000, 56.000000
8298, 64.000000, 296.000000, 56.000000
8299, 68.000000, 296.000000, 56.000000
8300, 72.000000, 296.000000, 56.000000
8301, 36.000000, 300.000000, 56.000000
8302, 40.000000, 300.000000, 56.000000
8303, 44.000000, 300.000000, 56.000000
8304, 48.000000, 300.000000, 56.000000
8305, 52.000000, 300.000000, 56.000000
8306, 56.000000, 300.000000, 56.000000
8307, 60.000000, 300.000000, 56.000000
8308, 64.000000, 300.000000, 56.000000
8309, 68.000000, 300.000000, 56.000000
8310, 72.000000, 300.000000, 56.000000
8311, 36.000000, 304.000000, 56.000000
8312, 40.000000, 304.000000, 56.000000
8313, 44.000000, 304.000000, 56.000000
8314, 48.000000, 304.000000, 56.000000
8315, 52.000000, 304.000000, 56.000000
8316, 56.000000, 304.000000, 56.000000
8317, 60.000000, 304.000000, 56.000000
8318, 64.000000, 304.000000, 56.000000
8319, 68.000000, 304.000000, 56.000000
8320, 72.000000, 304.000000, 56.000000
8321, 36.000000, 308.000000, 56.000000
8322, 40.000000, 308.000000, 56.000000
8323, 44.000000, 308.000000, 56.000000
8324, 48.000000, 308.000000, 56.000000
8325, 52.000000, 308.000000, 56.000000
8326, 56.000000, 308.000000, 56.000000
8327, 60.000000, 308.000000, 56.000000
8328, 64.000000, 308.000000, 56.000000
8329, 68.000000, 308.000000, 56.000000
8330, 72.000000, 308.000000, 56.000000
8331, 36.000000, 312.000000, 56.000000
8332, 40.000000, 312.000000, 56.000000
8333, 44.000000, 312.000000, 56.000000
8334, 48.000000, 312.000000, 56.000000
8335, 52.000000, 312.000000, 56.000000
8336, 56.000000, 312.000000, 56.000000
8337, 60.000000, 312.000000, 56.000000
8338, 64.000000, 312.000000, 56.000000
8339, 68.000000, 312.000000, 56.000000
8340, 72.000000, 312.000000, 56.000000
8341, 36.000000, 316.000000, 56.000000
8342, 40.000000, 316.000000, 56.000000
8343, 44.000000, 316.000000, 56.000000
8344, 48.000000, 316.000000, 56.000000
8345, 52.000000, 316.000000, 56.000000
8346, 56.000000, 316.000000, 56.000000
8347, 60.000000, 316.000000, 56.000000
8348, 64.000000, 316.000000, 56.000000
8349, 68.000000, 316.000000, 56.000000
8350, 72.000000, 316.000000, 56.000000
8351, 36.000000, 320.000000, 56.000000
8352, 40.000000, 320.000000, 56.000000
8353, 44.000000, 320.000000, 56.000000
8354, 48.000000, 320.000000, 56.000000
8355, 52.000000, 320.000000, 56.000000
8356, 56.000000, 320.000000, 56.000000
8357, 60.000000, 320.000000, 56.000000
8358, 64.000000, 320.000000, 56.000000
8359, 68.000000, 320.000000, 56.000000
8360, 72.000000, 320.000000, 56.000000
8361, 36.000000, 324.000000, 56.000000
8362, 40.000000, 324.000000, 56.000000
8363, 44.000000, 324.000000, 56.000000
8364, 48.000000, 324.000000, 56.000000
8365, 52.000000, 324.000000, 56.000000
8366, 56.000000, 324.000000, 56.000000
8367, 60.000000, 324.000000, 56.000000
8368, 64.000000, 324.000000, 56.000000
8369, 68.000000, 324.000000, 56.000000
8370, 72.000000, 324.000000, 56.000000
8371, 36.000000, 328.000000, 56.000000
8372, 40.000000, 328.000000, 56.000000
8373, 44.000000, 328.000000, 56.000000
8374, 48.000000, 328.000000, 56.000000
8375, 52.000000, 328.000000, 56.000000
8376, 56.000000, 328.000000, 56.000000
8377, 60.000000, 328.000000, 56.000000
8378, 64.000000, 328.000000, 56.000000
8379, 68.000000, 328.000000, 56.000000
8380, 72.000000, 328.000000, 56.000000
8381, 36.000000, 332.000000, 56.000000
8382, 40.000000, 332.000000, 56.000000
8383, 44.000000, 332.000000, 56.000000
8384, 48.000000, 332.000000, 56.000000
8385, 52.000000, 332.000000, 56.000000
8386, 56.000000, 332.000000, 56.000000
8387, 60.000000, 332.000000, 56.000000
8388, 64.000000, 332.000000, 56.000000
8389, 68.000000, 332.000000, 56.000000
8390, 72.000000, 332.000000, 56.000000
8391, 36.000000, 336.000000, 56.000000
8392, 40.000000, 336.000000, 56.000000
8393, 44.000000, 336.000000, 56.000000
8394, 48.000000, 336.000000, 56.000000
8395, 52.000000, 336.000000, 56.000000
8396, 56.000000, 336.000000, 56.000000
8397, 60.000000, 336.000000, 56.000000
8398, 64.000000, 336.000000, 56.000000
8399, 68.000000, 336.000000, 56.000000
8400, 72.000000, 336.000000, 56.000000
8401, 36.000000, 340.000000, 56.000000
8402, 40.000000, 340.000000, 56.000000
8403, 44.000000, 340.000000, 56.000000
8404, 48.000000, 340.000000, 56.000000
8405, 52.000000, 340.000000, 56.000000
8406, 56.000000, 340.000000, 56.000000
8407, 60.000000, 340.000000, 56.000000
8408, 64.000000, 340.000000, 56.000000
8409, 68.000000, 340.000000, 56.000000
8410, 72.000000, 340.000000, 56.000000
8411, 36.000000, 344.000000, 56.000000
8412, 40.000000, 344.000000, 56.000000
8413, 44.000000, 344.000000, 56.000000
8414, 48.000000, 344.000000, 56.000000
8415, 52.000000, 344.000000, 56.000000
8416, 56.000000, 344.000000, 56.000000
8417, 60.000000, 344.000000, 56.000000
8418, 64.000000, 344.000000, 56.000000
8419, 68.000000, 344.000000, 56.000000
8420, 72.000000, 344.000000, 56.000000
8421, 36.000000, 348.000000, 56.000000
8422, 40.000000, 348.000000, 56.000000
8423, 44.000000, 348.000000, 56.000000
8424, 48.000000, 348.000000, 56.000000
8425, 52.000000, 348.000000, 56.000000
8426, 56.000000, 348.000000, 56.000000
8427, 60.000000, 348.000000, 56.000000
8428, 64.000000, 348.000000, 56.000000
8429, 68.000000, 348.000000, 56.000000
8430, 72.000000, 348.000000, 56.000000
8431, 36.000000, 352.000000, 56.000000
8432, 40.000000, 352.000000, 56.000000
8433, 44.000000, 352.000000, 56.000000
8434, 48.000000, 352.000000, 56.000000
8435, 52.000000, 352.000000, 56.000000
8436, 56.000000, 352.000000, 56.000000
8437, 60.000000, 352.000000, 56.000000
8438, 64.000000, 352.000000, 56.000000
8439, 68.000000, 352.000000, 56.000000
8440, 72.000000, 352.000000, 56.000000
8441, 36.000000, 356.000000, 56.000000
8442, 40.000000, 356.000000, 56.000000
8443, 44.000000, 356.000000, 56.000000
8444, 48.000000, 356.000000, 56.000000
8445, 52.000000, 356.000000, 56.000000
8446, 56.000000, 356.000000, 56.000000
8447, 60.000000, 356.000000, 56.000000
8448, 64.000000, 356.000000, 56.000000
8449, 68.000000, 356.000000, 56.000000
8450, 72.000000, 356.000000, 56.000000
8451, 36.000000, 360.000000, 56.000000
8452, 40.000000, 360.000000, 56.000000
8453, 44.000000, 360.000000, 56.000000
8454, 48.000000, 360.000000, 56.000000
8455, 52.000000, 360.000000, 56.000000
8456, 56.000000, 360.000000, 56.000000
8457, 60.000000, 360.000000, 56.000000
8458, 64.000000, 360.000000, 56.000000
8459, 68.000000, 360.000000, 56.000000
8460, 72.000000, 360.000000, 56.000000
8461, 36.000000, 364.000000, 56.000000
8462, 40.000000, 364.000000, 56.000000
8463, 44.000000, 364.000000, 56.000000
8464, 48.000000, 364.000000, 56.000000
8465, 52.000000, 364.000000, 56.000000
8466, 56.000000, 364.000000, 56.000000
8467, 60.000000, 364.000000, 56.000000
8468, 64.000000, 364.000000, 56.000000
8469, 68.000000, 364.000000, 56.000000
8470, 72.000000, 364.000000, 56.000000
8471, 36.000000, 368.000000, 56.000000
8472, 40.000000, 368.000000, 56.000000
8473, 44.000000, 368.000000, 56.000000
8474, 48.000000, 368.000000, 56.000000
8475, 52.000000, 368.000000, 56.000000
8476, 56.000000, 368.000000, 56.000000
8477, 60.000000, 368.000000, 56.000000
8478, 64.000000, 368.000000, 56.000000
8479, 68.000000, 368.000000, 56.000000
8480, 72.000000, 368.000000, 56.000000
8481, 36.000000, 372.000000, 56.000000
8482, 40.000000, 372.000000, 56.000000
8483, 44.000000, 372.000000, 56.000000
8484, 48.000000, 372.000000, 56.000000
8485, 52.000000, 372.000000, 56.000000
8486, 56.000000, 372.000000, 56.000000
8487, 60.000000, 372.000000, 56.000000
8488, 64.000000, 372.000000, 56.000000
8489, 68.000000, 372.000000, 56.000000
8490, 72.000000, 372.000000, 56.000000
8491, 36.000000, 376.000000, 56.000000
8492, 40.000000, 376.000000, 56.000000
8493, 44.000000, 376.000000, 56.000000
8494, 48.000000, 376.000000, 56.000000
8495, 52.000000, 376.000000, 56.000000
8496, 56.000000, 376.000000, 56.000000
8497, 60.000000, 376.000000, 56.000000
8498, 64.000000, 376.000000, 56.000000
8499, 68.000000, 376.000000, 56.000000
8500, 72.000000, 376.000000, 56.000000
8501, 36.000000, 380.000000, 56.000000
8502, 40.000000, 380.000000, 56.000000
8503, 44.000000, 380.000000, 56.000000
8504, 48.000000, 380.000000, 56.000000
8505, 52.000000, 380.000000, 56.000000
8506, 56.000000, 380.000000, 56.000000
8507, 60.000000, 380.000000, 56.000000
8508, 64.000000, 380.000000, 56.000000
8509, 68.000000, 380.000000, 56.000000
8510, 72.000000, 380.000000, 56.000000
8511, 36.000000, 384.000000, 56.000000
8512, 40.000000, 384.000000, 56.000000
8513, 44.000000, 384.000000, 56.000000
8514, 48.000000, 384.000000, 56.000000
8515, 52.000000, 384.000000, 56.000000
8516, 56.000000, 384.000000, 56.000000
8517, 60.000000, 384.000000, 56.000000
8518, 64.000000, 384.000000, 56.000000
8519, 68.000000, 384.000000, 56.000000
8520, 72.000000, 384.000000, 56.000000
8521, 36.000000, 388.000000, 56.000000
8522, 40.000000, 388.000000, 56.000000
8523, 44.000000, 388.000000, 56.000000
8524, 48.000000, 388.000000, 56.000000
8525, 52.000000, 388.000000, 56.000000
8526, 56.000000, 388.000000, 56.000000
8527, 60.000000, 388.000000, 56.000000
8528, 64.000000, 388.000000, 56.000000
8529, 68.000000, 388.000000, 56.000000
8530, 72.000000, 388.000000, 56.000000
8531, 36.000000, 392.000000, 56.000000
8532, 40.000000, 392.000000, 56.000000
8533, 44.000000, 392.000000, 56.000000
8534, 48.000000, 392.000000, 56.000000
8535, 52.000000, 392.000000, 56.000000
8536, 56.000000, 392.000000, 56.000000
8537, 60.000000, 392.000000, 56.000000
8538, 64.000000, 392.000000, 56.000000
8539, 68.000000, 392.000000, 56.000000
8540, 72.000000, 392.000000, 56.000000
8541, 36.000000, 396.000000, 56.000000
8542, 40.000000, 396.000000, 56.000000
8543, 44.000000, 396.000000, 56.000000
8544, 48.000000, 396.000000, 56.000000
8545, 52.000000, 396.000000, 56.000000
8546, 56.000000, 396.000000, 56.000000
8547, 60.000000, 396.000000, 56.000000
8548, 64.000000, 396.000000, 56.000000
8549, 68.000000, 396.000000, 56.000000
8550, 72.000000, 396.000000, 56.000000
8551, 36.000000, 400.000000, 56.000000
8552, 40.000000, 400.000000, 56.000000
8553, 44.000000, 400.000000, 56.000000
8554, 48.000000, 400.000000, 56.000000
8555, 52.000000, 400.000000, 56.000000
8556, 56.000000, 400.000000, 56.000000
8557, 60.000000, 400.000000, 56.000000
8558, 64.000000, 400.000000, 56.000000
8559, 68.000000, 400.000000, 56.000000
8560, 72.000000, 400.000000, 56.000000
8561, 36.000000, 404.000000, 56.000000
8562, 40.000000, 404.000000, 56.000000
8563, 44.000000, 404.000000, 56.000000
8564, 48.000000, 404.000000, 56.000000
8565, 52.000000, 404.000000, 56.000000
8566, 56.000000, 404.000000, 56.000000
8567, 60.000000, 404.000000, 56.000000
8568, 64.000000, 404.000000, 56.000000
8569, 68.000000, 404.000000, 56.000000
8570, 72.000000, 404.000000, 56.000000
8571, 36.000000, 408.000000, 56.000000
8572, 40.000000, 408.000000, 56.000000
8573, 44.000000, 408.000000, 56.000000
8574, 48.000000, 408.000000, 56.000000
8575, 52.000000, 408.000000, 56.000000
8576, 56.000000, 408.000000, 56.000000
8577, 60.000000, 408.000000, 56.000000
8578, 64.000000, 408.000000, 56.000000
8579, 68.000000, 408.000000, 56.000000
8580, 72.000000, 408.000000, 56.000000
8581, 36.000000, 412.000000, 56.000000
8582, 40.000000, 412.000000, 56.000000
8583, 44.000000, 412.000000, 56.000000
8584, 48.000000, 412.000000, 56.000000
8585, 52.000000, 412.000000, 56.000000
8586, 56.000000, 412.000000, 56.000000
8587, 60.000000, 412.000000, 56.000000
8588, 64.000000, 412.000000, 56.000000
8589, 68.000000, 412.000000, 56.000000
8590, 72.000000, 412.000000, 56.000000
8591, 36.000000, 416.000000, 56.000000
8592, 40.000000, 416.000000, 56.000000
8593, 44.000000, 416.000000, 56.000000
8594, 48.000000, 416.000000, 56.000000
8595, 52.000000, 416.000000, 56.000000
8596, 56.000000, 416.000000, 56.000000
8597, 60.000000, 416.000000, 56.000000
8598, 64.000000, 416.000000, 56.000000
8599, 68.000000, 416.000000, 56.000000
8600, 72.000000, 416.000000, 56.000000
8601, 36.000000, 420.000000, 56.000000
8602, 40.000000, 420.000000, 56.000000
8603, 44.000000, 420.000000, 56.000000
8604, 48.000000, 420.000000, 56.000000
8605, 52.000000, 420.000000, 56.000000
8606, 56.000000, 420.000000, 56.000000
8607, 60.000000, 420.000000, 56.000000
8608, 64.000000, 420.000000, 56.000000
8609, 68.000000, 420.000000, 56.000000
8610, 72.000000, 420.000000, 56.000000
8611, 36.000000, 424.000000, 56.000000
8612, 40.000000, 424.000000, 56.000000
8613, 44.000000, 424.000000, 56.000000
8614, 48.000000, 424.000000, 56.000000
8615, 52.000000, 424.000000, 56.000000
8616, 56.000000, 424.000000, 56.000000
8617, 60.000000, 424.000000, 56.000000
8618, 64.000000, 424.000000, 56.000000
8619, 68.000000, 424.000000, 56.000000
8620, 72.000000, 424.000000, 56.000000
8621, 36.000000, 428.000000, 56.000000
8622, 40.000000, 428.000000, 56.000000
8623, 44.000000, 428.000000, 56.000000
8624, 48.000000, 428.000000, 56.000000
8625, 52.000000, 428.000000, 56.000000
8626, 56.000000, 428.000000, 56.000000
8627, 60.000000, 428.000000, 56.000000
8628, 64.000000, 428.000000, 56.000000
8629, 68.000000, 428.000000, 56.000000
8630, 72.000000, 428.000000, 56.000000
8631, 36.000000, 432.000000, 56.000000
8632, 40.000000, 432.000000, 56.000000
8633, 44.000000, 432.000000, 56.000000
8634, 48.000000, 432.000000, 56.000000
8635, 52.000000, 432.000000, 56.000000
8636, 56.000000, 432.000000, 56.000000
8637, 60.000000, 432.000000, 56.000000
8638, 64.000000, 432.000000, 56.000000
8639, 68.000000, 432.000000, 56.000000
8640, 72.000000, 432.000000, 56.000000
8641, 36.000000, 436.000000, 56.000000
8642, 40.000000, 436.000000, 56.000000
8643, 44.000000, 436.000000, 56.000000
8644, 48.000000, 436.000000, 56.000000
8645, 52.000000, 436.000000, 56.000000
8646, 56.000000, 436.000000, 56.000000
8647, 60.000000, 436.000000, 56.000000
8648, 64.000000, 436.000000, 56.000000
8649, 68.000000, 436.000000, 56.000000
8650, 72.000000, 436.000000, 56.000000
8651, 36.000000, 440.000000, 56.000000
8652, 40.000000, 440.000000, 56.000000
8653, 44.000000, 440.000000, 56.000000
8654, 48.000000, 440.000000, 56.000000
8655, 52.000000, 440.000000, 56.000000
8656, 56.000000, 440.000000, 56.000000
8657, 60.000000, 440.000000, 56.000000
8658, 64.000000, 440.000000, 56.000000
8659, 68.000000, 440.000000, 56.000000
8660, 72.000000, 440.000000, 56.000000
8661, 36.000000, 444.000000, 56.000000
8662, 40.000000, 444.000000, 56.000000
8663, 44.000000, 444.000000, 56.000000
8664, 48.000000, 444.000000, 56.000000
8665, 52.000000, 444.000000, 56.000000
8666, 56.000000, 444.000000, 56.000000
8667, 60.000000, 444.000000, 56.000000
8668, 64.000000, 444.000000, 56.000000
8669, 68.000000, 444.000000, 56.000000
8670, 72.000000, 444.000000, 56.000000
8671, 36.000000, 448.000000, 56.000000
8672, 40.000000, 448.000000, 56.000000
8673, 44.000000, 448.000000, 56.000000
8674, 48.000000, 448.000000, 56.000000
8675, 52.000000, 448.000000, 56.000000
8676, 56.000000, 448.000000, 56.000000
8677, 60.000000, 448.000000, 56.000000
8678, 64.000000, 448.000000, 56.000000
8679, 68.000000, 448.000000, 56.000000
8680, 72.000000, 448.000000, 56.000000
8681, 36.000000, 452.000000, 56.000000
8682, 40.000000, 452.000000, 56.000000
8683, 44.000000, 452.000000, 56.000000
8684, 48.000000, 452.000000, 56.000000
8685, 52.000000, 452.000000, 56.000000
8686, 56.000000, 452.000000, 56.000000
8687, 60.000000, 452.000000, 56.000000
8688, 64.000000, 452.000000, 56.000000
8689, 68.000000, 452.000000, 56.000000
8690, 72.000000, 452.000000, 56.000000
8691, 36.000000, 456.000000, 56.000000
8692, 40.000000, 456.000000, 56.000000
8693, 44.000000, 456.000000, 56.000000
8694, 48.000000, 456.000000, 56.000000
8695, 52.000000, 456.000000, 56.000000
8696, 56.000000, 456.000000, 56.000000
8697, 60.000000, 456.000000, 56.000000
8698, 64.000000, 456.000000, 56.000000
8699, 68.000000, 456.000000, 56.000000
8700, 72.000000, 456.000000, 56.000000
8701, 36.000000, 228.000000, 60.000000
8702, 40.000000, 228.000000, 60.000000
8703, 44.000000, 228.000000, 60.000000
8704, 48.000000, 228.000000, 60.000000
8705, 52.000000, 228.000000, 60.000000
8706, 56.000000, 228.000000, 60.000000
8707, 60.000000, 228.000000, 60.000000
8708, 64.000000, 228.000000, 60.000000
8709, 68.000000, 228.000000, 60.000000
8710, 72.000000, 228.000000, 60.000000
8711, 36.000000, 232.000000, 60.000000
8712, 40.000000, 232.000000, 60.000000
8713, 44.000000, 232.000000, 60.000000
8714, 48.000000, 232.000000, 60.000000
8715, 52.000000, 232.000000, 60.000000
8716, 56.000000, 232.000000, 60.000000
8717, 60.000000, 232.000000, 60.000000
8718, 64.000000, 232.000000, 60.000000
8719, 68.000000, 232.000000, 60.000000
8720, 72.000000, 232.000000, 60.000000
8721, 36.000000, 236.000000, 60.000000
8722, 40.000000, 236.000000, 60.000000
8723, 44.000000, 236.000000, 60.000000
8724, 48.000000, 236.000000, 60.000000
8725, 52.000000, 236.000000, 60.000000
8726, 56.000000, 236.000000, 60.000000
8727, 60.000000, 236.000000, 60.000000
8728, 64.000000, 236.000000, 60.000000
8729, 68.000000, 236.000000, 60.000000
8730, 72.000000, 236.000000, 60.000000
8731, 36.000000, 240.000000, 60.000000
8732, 40.000000, 240.000000, 60.000000
8733, 44.000000, 240.000000, 60.000000
8734, 48.000000, 240.000000, 60.000000
8735, 52.000000, 240.000000, 60.000000
8736, 56.000000, 240.000000, 60.000000
8737, 60.000000, 240.000000, 60.000000
8738, 64.000000, 240.000000, 60.000000
8739, 68.000000, 240.000000, 60.000000
8740, 72.000000, 240.000000, 60.000000
8741, 36.000000, 244.000000, 60.000000
8742, 40.000000, 244.000000, 60.000000
8743, 44.000000, 244.000000, 60.000000
8744, 48.000000, 244.000000, 60.000000
8745, 52.000000, 244.000000, 60.000000
8746, 56.000000, 244.000000, 60.000000
8747, 60.000000, 244.000000, 60.000000
8748, 64.000000, 244.000000, 60.000000
8749, 68.000000, 244.000000, 60.000000
8750, 72.000000, 244.000000, 60.000000
8751, 36.000000, 248.000000, 60.000000
8752, 40.000000, 248.000000, 60.000000
8753, 44.000000, 248.000000, 60.000000
8754, 48.000000, 248.000000, 60.000000
8755, 52.000000, 248.000000, 60.000000
8756, 56.000000, 248.000000, 60.000000
8757, 60.000000, 248.000000, 60.000000
8758, 64.000000, 248.000000, 60.000000
8759, 68.000000, 248.000000, 60.000000
8760, 72.000000, 248.000000, 60.000000
8761, 36.000000, 252.000000, 60.000000
8762, 40.000000, 252.000000, 60.000000
8763, 44.000000, 252.000000, 60.000000
8764, 48.000000, 252.000000, 60.000000
8765, 52.000000, 252.000000, 60.000000
8766, 56.000000, 252.000000, 60.000000
8767, 60.000000, 252.000000, 60.000000
8768, 64.000000, 252.000000, 60.000000
8769, 68.000000, 252.000000, 60.000000
8770, 72.000000, 252.000000, 60.000000
8771, 36.000000, 256.000000, 60.000000
8772, 40.000000, 256.000000, 60.000000
8773, 44.000000, 256.000000, 60.000000
8774, 48.000000, 256.000000, 60.000000
8775, 52.000000, 256.000000, 60.000000
8776, 56.000000, 256.000000, 60.000000
8777, 60.000000, 256.000000, 60.000000
8778, 64.000000, 256.000000, 60.000000
8779, 68.000000, 256.000000, 60.000000
8780, 72.000000, 256.000000, 60.000000
8781, 36.000000, 260.000000, 60.000000
8782, 40.000000, 260.000000, 60.000000
8783, 44.000000, 260.000000, 60.000000
8784, 48.000000, 260.000000, 60.000000
8785, 52.000000, 260.000000, 60.000000
8786, 56.000000, 260.000000, 60.000000
8787, 60.000000, 260.000000, 60.000000
8788, 64.000000, 260.000000, 60.000000
8789, 68.000000, 260.000000, 60.000000
8790, 72.000000, 260.000000, 60.000000
8791, 36.000000, 264.000000, 60.000000
8792, 40.000000, 264.000000, 60.000000
8793, 44.000000, 264.000000, 60.000000
8794, 48.000000, 264.000000, 60.000000
8795, 52.000000, 264.000000, 60.000000
8796, 56.000000, 264.000000, 60.000000
8797, 60.000000, 264.000000, 60.000000
8798, 64.000000, 264.000000, 60.000000
8799, 68.000000, 264.000000, 60.000000
8800, 72.000000, 264.000000, 60.000000
8801, 36.000000, 268.000000, 60.000000
8802, 40.000000, 268.000000, 60.000000
8803, 44.000000, 268.000000, 60.000000
8804, 48.000000, 268.000000, 60.000000
8805, 52.000000, 268.000000, 60.000000
8806, 56.000000, 268.000000, 60.000000
8807, 60.000000, 268.000000, 60.000000
8808, 64.000000, 268.000000, 60.000000
8809, 68.000000, 268.000000, 60.000000
8810, 72.000000, 268.000000, 60.000000
8811, 36.000000, 272.000000, 60.000000
8812, 40.000000, 272.000000, 60.000000
8813, 44.000000, 272.000000, 60.000000
8814, 48.000000, 272.000000, 60.000000
8815, 52.000000, 272.000000, 60.000000
8816, 56.000000, 272.000000, 60.000000
8817, 60.000000, 272.000000, 60.000000
8818, 64.000000, 272.000000, 60.000000
8819, 68.000000, 272.000000, 60.000000
8820, 72.000000, 272.000000, 60.000000
8821, 36.000000, 276.000000, 60.000000
8822, 40.000000, 276.000000, 60.000000
8823, 44.000000, 276.000000, 60.000000
8824, 48.000000, 276.000000, 60.000000
8825, 52.000000, 276.000000, 60.000000
8826, 56.000000, 276.000000, 60.000000
8827, 60.000000, 276.000000, 60.000000
8828, 64.000000, 276.000000, 60.000000
8829, 68.000000, 276.000000, 60.000000
8830, 72.000000, 276.000000, 60.000000
8831, 36.000000, 280.000000, 60.000000
8832, 40.000000, 280.000000, 60.000000
8833, 44.000000, 280.000000, 60.000000
8834, 48.000000, 280.000000, 60.000000
8835, 52.000000, 280.000000, 60.000000
8836, 56.000000, 280.000000, 60.000000
8837, 60.000000, 280.000000, 60.000000
8838, 64.000000, 280.000000, 60.000000
8839, 68.000000, 280.000000, 60.000000
8840, 72.000000, 280.000000, 60.000000
8841, 36.000000, 284.000000, 60.000000
8842, 40.000000, 284.000000, 60.000000
8843, 44.000000, 284.000000, 60.000000
8844, 48.000000, 284.000000, 60.000000
8845, 52.000000, 284.000000, 60.000000
8846, 56.000000, 284.000000, 60.000000
8847, 60.000000, 284.000000, 60.000000
8848, 64.000000, 284.000000, 60.000000
8849, 68.000000, 284.000000, 60.000000
8850, 72.000000, 284.000000, 60.000000
8851, 36.000000, 288.000000, 60.000000
8852, 40.000000, 288.000000, 60.000000
8853, 44.000000, 288.000000, 60.000000
8854, 48.000000, 288.000000, 60.000000
8855, 52.000000, 288.000000, 60.000000
8856, 56.000000, 288.000000, 60.000000
8857, 60.000000, 288.000000, 60.000000
8858, 64.000000, 288.000000, 60.000000
8859, 68.000000, 288.000000, 60.000000
8860, 72.000000, 288.000000, 60.000000
8861, 36.000000, 292.000000, 60.000000
8862, 40.000000, 292.000000, 60.000000
8863, 44.000000, 292.000000, 60.000000
8864, 48.000000, 292.000000, 60.000000
8865, 52.000000, 292.000000, 60.000000
8866, 56.000000, 292.000000, 60.000000
8867, 60.000000, 292.000000, 60.000000
8868, 64.000000, 292.000000, 60.000000
8869, 68.000000, 292.000000, 60.000000
8870, 72.000000, 292.000000, 60.000000
8871, 36.000000, 296.000000, 60.000000
8872, 40.000000, 296.000000, 60.000000
8873, 44.000000, 296.000000, 60.000000
8874, 48.000000, 296.000000, 60.000000
8875, 52.000000, 296.000000, 60.000000
8876, 56.000000, 296.000000, 60.000000
8877, 60.000000, 296.000000, 60.000000
8878, 64.000000, 296.000000, 60.000000
8879, 68.000000, 296.000000, 60.000000
8880, 72.000000, 296.000000, 60.000000
8881, 36.000000, 300.000000, 60.000000
8882, 40.000000, 300.000000, 60.000000
8883, 44.000000, 300.000000, 60.000000
8884, 48.000000, 300.000000, 60.000000
8885, 52.000000, 300.000000, 60.000000
8886, 56.000000, 300.000000, 60.000000
8887, 60.000000, 300.000000, 60.000000
8888, 64.000000, 300.000000, 60.000000
8889, 68.000000, 300.000000, 60.000000
8890, 72.000000, 300.000000, 60.000000
8891, 36.000000, 304.000000, 60.000000
8892, 40.000000, 304.000000, 60.000000
8893, 44.000000, 304.000000, 60.000000
8894, 48.000000, 304.000000, 60.000000
8895, 52.000000, 304.000000, 60.000000
8896, 56.000000, 304.000000, 60.000000
8897, 60.000000, 304.000000, 60.000000
8898, 64.000000, 304.000000, 60.000000
8899, 68.000000, 304.000000, 60.000000
8900, 72.000000, 304.000000, 60.000000
8901, 36.000000, 308.000000, 60.000000
8902, 40.000000, 308.000000, 60.000000
8903, 44.000000, 308.000000, 60.000000
8904, 48.000000, 308.000000, 60.000000
8905, 52.000000, 308.000000, 60.000000
8906, 56.000000, 308.000000, 60.000000
8907, 60.000000, 308.000000, 60.000000
8908, 64.000000, 308.000000, 60.000000
8909, 68.000000, 308.000000, 60.000000
8910, 72.000000, 308.000000, 60.000000
8911, 36.000000, 312.000000, 60.000000
8912, 40.000000, 312.000000, 60.000000
8913, 44.000000, 312.000000, 60.000000
8914, 48.000000, 312.000000, 60.000000
8915, 52.000000, 312.000000, 60.000000
8916, 56.000000, 312.000000, 60.000000
8917, 60.000000, 312.000000, 60.000000
8918, 64.000000, 312.000000, 60.000000
8919, 68.000000, 312.000000, 60.000000
8920, 72.000000, 312.000000, 60.000000
8921, 36.000000, 316.000000, 60.000000
8922, 40.000000, 316.000000, 60.000000
8923, 44.000000, 316.000000, 60.000000
8924, 48.000000, 316.000000, 60.000000
8925, 52.000000, 316.000000, 60.000000
8926, 56.000000, 316.000000, 60.000000
8927, 60.000000, 316.000000, 60.000000
8928, 64.000000, 316.000000, 60.000000
8929, 68.000000, 316.000000, 60.000000
8930, 72.000000, 316.000000, 60.000000
8931, 36.000000, 320.000000, 60.000000
8932, 40.000000, 320.000000, 60.000000
8933, 44.000000, 320.000000, 60.000000
8934, 48.000000, 320.000000, 60.000000
8935, 52.000000, 320.000000, 60.000000
8936, 56.000000, 320.000000, 60.000000
8937, 60.000000, 320.000000, 60.000000
8938, 64.000000, 320.000000, 60.000000
8939, 68.000000, 320.000000, 60.000000
8940, 72.000000, 320.000000, 60.000000
8941, 36.000000, 324.000000, 60.000000
8942, 40.000000, 324.000000, 60.000000
8943, 44.000000, 324.000000, 60.000000
8944, 48.000000, 324.000000, 60.000000
8945, 52.000000, 324.000000, 60.000000
8946, 56.000000, 324.000000, 60.000000
8947, 60.000000, 324.000000, 60.000000
8948, 64.000000, 324.000000, 60.000000
8949, 68.000000, 324.000000, 60.000000
8950, 72.000000, 324.000000, 60.000000
8951, 36.000000, 328.000000, 60.000000
8952, 40.000000, 328.000000, 60.000000
8953, 44.000000, 328.000000, 60.000000
8954, 48.000000, 328.000000, 60.000000
8955, 52.000000, 328.000000, 60.000000
8956, 56.000000, 328.000000, 60.000000
8957, 60.000000, 328.000000, 60.000000
8958, 64.000000, 328.000000, 60.000000
8959, 68.000000, 328.000000, 60.000000
8960, 72.000000, 328.000000, 60.000000
8961, 36.000000, 332.000000, 60.000000
8962, 40.000000, 332.000000, 60.000000
8963, 44.000000, 332.000000, 60.000000
8964, 48.000000, 332.000000, 60.000000
8965, 52.000000, 332.000000, 60.000000
8966, 56.000000, 332.000000, 60.000000
8967, 60.000000, 332.000000, 60.000000
8968, 64.000000, 332.000000, 60.000000
8969, 68.000000, 332.000000, 60.000000
8970, 72.000000, 332.000000, 60.000000
8971, 36.000000, 336.000000, 60.000000
8972, 40.000000, 336.000000, 60.000000
8973, 44.000000, 336.000000, 60.000000
8974, 48.000000, 336.000000, 60.000000
8975, 52.000000, 336.000000, 60.000000
8976, 56.000000, 336.000000, 60.000000
8977, 60.000000, 336.000000, 60.000000
8978, 64.000000, 336.000000, 60.000000
8979, 68.000000, 336.000000, 60.000000
8980, 72.000000, 336.000000, 60.000000
8981, 36.000000, 340.000000, 60.000000
8982, 40.000000, 340.000000, 60.000000
8983, 44.000000, 340.000000, 60.000000
8984, 48.000000, 340.000000, 60.000000
8985, 52.000000, 340.000000, 60.000000
8986, 56.000000, 340.000000, 60.000000
8987, 60.000000, 340.000000, 60.000000
8988, 64.000000, 340.000000, 60.000000
8989, 68.000000, 340.000000, 60.000000
8990, 72.000000, 340.000000, 60.000000
8991, 36.000000, 344.000000, 60.000000
8992, 40.000000, 344.000000, 60.000000
8993, 44.000000, 344.000000, 60.000000
8994, 48.000000, 344.000000, 60.000000
8995, 52.000000, 344.000000, 60.000000
8996, 56.000000, 344.000000, 60.000000
8997, 60.000000, 344.000000, 60.000000
8998, 64.000000, 344.000000, 60.000000
8999, 68.000000, 344.000000, 60.000000
9000, 72.000000, 344.000000, 60.000000
9001, 36.000000, 348.000000, 60.000000
9002, 40.000000, 348.000000, 60.000000
9003, 44.000000, 348.000000, 60.000000
9004, 48.000000, 348.000000, 60.000000
9005, 52.000000, 348.000000, 60.000000
9006, 56.000000, 348.000000, 60.000000
9007, 60.000000, 348.000000, 60.000000
9008, 64.000000, 348.000000, 60.000000
9009, 68.000000, 348.000000, 60.000000
9010, 72.000000, 348.000000, 60.000000
9011, 36.000000, 352.000000, 60.000000
9012, 40.000000, 352.000000, 60.000000
9013, 44.000000, 352.000000, 60.000000
9014, 48.000000, 352.000000, 60.000000
9015, 52.000000, 352.000000, 60.000000
9016, 56.000000, 352.000000, 60.000000
9017, 60.000000, 352.000000, 60.000000
9018, 64.000000, 352.000000, 60.000000
9019, 68.000000, 352.000000, 60.000000
9020, 72.000000, 352.000000, 60.000000
9021, 36.000000, 356.000000, 60.000000
9022, 40.000000, 356.000000, 60.000000
9023, 44.000000, 356.000000, 60.000000
9024, 48.000000, 356.000000, 60.000000
9025, 52.000000, 356.000000, 60.000000
9026, 56.000000, 356.000000, 60.000000
9027, 60.000000, 356.000000, 60.000000
9028, 64.000000, 356.000000, 60.000000
9029, 68.000000, 356.000000, 60.000000
9030, 72.000000, 356.000000, 60.000000
9031, 36.000000, 360.000000, 60.000000
9032, 40.000000, 360.000000, 60.000000
9033, 44.000000, 360.000000, 60.000000
9034, 48.000000, 360.000000, 60.000000
9035, 52.000000, 360.000000, 60.000000
9036, 56.000000, 360.000000, 60.000000
9037, 60.000000, 360.000000, 60.000000
9038, 64.000000, 360.000000, 60.000000
9039, 68.000000, 360.000000, 60.000000
9040, 72.000000, 360.000000, 60.000000
9041, 36.000000, 364.000000, 60.000000
9042, 40.000000, 364.000000, 60.000000
9043, 44.000000, 364.000000, 60.000000
9044, 48.000000, 364.000000, 60.000000
9045, 52.000000, 364.000000, 60.000000
9046, 56.000000, 364.000000, 60.000000
9047, 60.000000, 364.000000, 60.000000
9048, 64.000000, 364.000000, 60.000000
9049, 68.000000, 364.000000, 60.000000
9050, 72.000000, 364.000000, 60.000000
9051, 36.000000, 368.000000, 60.000000
9052, 40.000000, 368.000000, 60.000000
9053, 44.000000, 368.000000, 60.000000
9054, 48.000000, 368.000000, 60.000000
9055, 52.000000, 368.000000, 60.000000
9056, 56.000000, 368.000000, 60.000000
9057, 60.000000, 368.000000, 60.000000
9058, 64.000000, 368.000000, 60.000000
9059, 68.000000, 368.000000, 60.000000
9060, 72.000000, 368.000000, 60.000000
9061, 36.000000, 372.000000, 60.000000
9062, 40.000000, 372.000000, 60.000000
9063, 44.000000, 372.000000, 60.000000
9064, 48.000000, 372.000000, 60.000000
9065, 52.000000, 372.000000, 60.000000
9066, 56.000000, 372.000000, 60.000000
9067, 60.000000, 372.000000, 60.000000
9068, 64.000000, 372.000000, 60.000000
9069, 68.000000, 372.000000, 60.000000
9070, 72.000000, 372.000000, 60.000000
9071, 36.000000, 376.000000, 60.000000
9072, 40.000000, 376.000000, 60.000000
9073, 44.000000, 376.000000, 60.000000
9074, 48.000000, 376.000000, 60.000000
9075, 52.000000, 376.000000, 60.000000
9076, 56.000000, 376.000000, 60.000000
9077, 60.000000, 376.000000, 60.000000
9078, 64.000000, 376.000000, 60.000000
9079, 68.000000, 376.000000, 60.000000
9080, 72.000000, 376.000000, 60.000000
9081, 36.000000, 380.000000, 60.000000
9082, 40.000000, 380.000000, 60.000000
9083, 44.000000, 380.000000, 60.000000
9084, 48.000000, 380.000000, 60.000000
9085, 52.000000, 380.000000, 60.000000
9086, 56.000000, 380.000000, 60.000000
9087, 60.000000, 380.000000, 60.000000
9088, 64.000000, 380.000000, 60.000000
9089, 68.000000, 380.000000, 60.000000
9090, 72.000000, 380.000000, 60.000000
9091, 36.000000, 384.000000, 60.000000
9092, 40.000000, 384.000000, 60.000000
9093, 44.000000, 384.000000, 60.000000
9094, 48.000000, 384.000000, 60.000000
9095, 52.000000, 384.000000, 60.000000
9096, 56.000000, 384.000000, 60.000000
9097, 60.000000, 384.000000, 60.000000
9098, 64.000000, 384.000000, 60.000000
9099, 68.000000, 384.000000, 60.000000
9100, 72.000000, 384.000000, 60.000000
9101, 36.000000, 388.000000, 60.000000
9102, 40.000000, 388.000000, 60.000000
9103, 44.000000, 388.000000, 60.000000
9104, 48.000000, 388.000000, 60.000000
9105, 52.000000, 388.000000, 60.000000
9106, 56.000000, 388.000000, 60.000000
9107, 60.000000, 388.000000, 60.000000
9108, 64.000000, 388.000000, 60.000000
9109, 68.000000, 388.000000, 60.000000
9110, 72.000000, 388.000000, 60.000000
9111, 36.000000, 392.000000, 60.000000
9112, 40.000000, 392.000000, 60.000000
9113, 44.000000, 392.000000, 60.000000
9114, 48.000000, 392.000000, 60.000000
9115, 52.000000, 392.000000, 60.000000
9116, 56.000000, 392.000000, 60.000000
9117, 60.000000, 392.000000, 60.000000
9118, 64.000000, 392.000000, 60.000000
9119, 68.000000, 392.000000, 60.000000
9120, 72.000000, 392.000000, 60.000000
9121, 36.000000, 396.000000, 60.000000
9122, 40.000000, 396.000000, 60.000000
9123, 44.000000, 396.000000, 60.000000
9124, 48.000000, 396.000000, 60.000000
9125, 52.000000, 396.000000, 60.000000
9126, 56.000000, 396.000000, 60.000000
9127, 60.000000, 396.000000, 60.000000
9128, 64.000000, 396.000000, 60.000000
9129, 68.000000, 396.000000, 60.000000
9130, 72.000000, 396.000000, 60.000000
9131, 36.000000, 400.000000, 60.000000
9132, 40.000000, 400.000000, 60.000000
9133, 44.000000, 400.000000, 60.000000
9134, 48.000000, 400.000000, 60.000000
9135, 52.000000, 400.000000, 60.000000
9136, 56.000000, 400.000000, 60.000000
9137, 60.000000, 400.000000, 60.000000
9138, 64.000000, 400.000000, 60.000000
9139, 68.000000, 400.000000, 60.000000
9140, 72.000000, 400.000000, 60.000000
9141, 36.000000, 404.000000, 60.000000
9142, 40.000000, 404.000000, 60.000000
9143, 44.000000, 404.000000, 60.000000
9144, 48.000000, 404.000000, 60.000000
9145, 52.000000, 404.000000, 60.000000
9146, 56.000000, 404.000000, 60.000000
9147, 60.000000, 404.000000, 60.000000
9148, 64.000000, 404.000000, 60.000000
9149, 68.000000, 404.000000, 60.000000
9150, 72.000000, 404.000000, 60.000000
9151, 36.000000, 408.000000, 60.000000
9152, 40.000000, 408.000000, 60.000000
9153, 44.000000, 408.000000, 60.000000
9154, 48.000000, 408.000000, 60.000000
9155, 52.000000, 408.000000, 60.000000
9156, 56.000000, 408.000000, 60.000000
9157, 60.000000, 408.000000, 60.000000
9158, 64.000000, 408.000000, 60.000000
9159, 68.000000, 408.000000, 60.000000
9160, 72.000000, 408.000000, 60.000000
9161, 36.000000, 412.000000, 60.000000
9162, 40.000000, 412.000000, 60.000000
9163, 44.000000, 412.000000, 60.000000
9164, 48.000000, 412.000000, 60.000000
9165, 52.000000, 412.000000, 60.000000
9166, 56.000000, 412.000000, 60.000000
9167, 60.000000, 412.000000, 60.000000
9168, 64.000000, 412.000000, 60.000000
9169, 68.000000, 412.000000, 60.000000
9170, 72.000000, 412.000000, 60.000000
9171, 36.000000, 416.000000, 60.000000
9172, 40.000000, 416.000000, 60.000000
9173, 44.000000, 416.000000, 60.000000
9174, 48.000000, 416.000000, 60.000000
9175, 52.000000, 416.000000, 60.000000
9176, 56.000000, 416.000000, 60.000000
9177, 60.000000, 416.000000, 60.000000
9178, 64.000000, 416.000000, 60.000000
9179, 68.000000, 416.000000, 60.000000
9180, 72.000000, 416.000000, 60.000000
9181, 36.000000, 420.000000, 60.000000
9182, 40.000000, 420.000000, 60.000000
9183, 44.000000, 420.000000, 60.000000
9184, 48.000000, 420.000000, 60.000000
9185, 52.000000, 420.000000, 60.000000
9186, 56.000000, 420.000000, 60.000000
9187, 60.000000, 420.000000, 60.000000
9188, 64.000000, 420.000000, 60.000000
9189, 68.000000, 420.000000, 60.000000
9190, 72.000000, 420.000000, 60.000000
9191, 36.000000, 424.000000, 60.000000
9192, 40.000000, 424.000000, 60.000000
9193, 44.000000, 424.000000, 60.000000
9194, 48.000000, 424.000000, 60.000000
9195, 52.000000, 424.000000, 60.000000
9196, 56.000000, 424.000000, 60.000000
9197, 60.000000, 424.000000, 60.000000
9198, 64.000000, 424.000000, 60.000000
9199, 68.000000, 424.000000, 60.000000
9200, 72.000000, 424.000000, 60.000000
9201, 36.000000, 428.000000, 60.000000
9202, 40.000000, 428.000000, 60.000000
9203, 44.000000, 428.000000, 60.000000
9204, 48.000000, 428.000000, 60.000000
9205, 52.000000, 428.000000, 60.000000
9206, 56.000000, 428.000000, 60.000000
9207, 60.000000, 428.000000, 60.000000
9208, 64.000000, 428.000000, 60.000000
9209, 68.000000, 428.000000, 60.000000
9210, 72.000000, 428.000000, 60.000000
9211, 36.000000, 432.000000, 60.000000
9212, 40.000000, 432.000000, 60.000000
9213, 44.000000, 432.000000, 60.000000
9214, 48.000000, 432.000000, 60.000000
9215, 52.000000, 432.000000, 60.000000
9216, 56.000000, 432.000000, 60.000000
9217, 60.000000, 432.000000, 60.000000
9218, 64.000000, 432.000000, 60.000000
9219, 68.000000, 432.000000, 60.000000
9220, 72.000000, 432.000000, 60.000000
9221, 36.000000, 436.000000, 60.000000
9222, 40.000000, 436.000000, 60.000000
9223, 44.000000, 436.000000, 60.000000
9224, 48.000000, 436.000000, 60.000000
9225, 52.000000, 436.000000, 60.000000
9226, 56.000000, 436.000000, 60.000000
9227, 60.000000, 436.000000, 60.000000
9228, 64.000000, 436.000000, 60.000000
9229, 68.000000, 436.000000, 60.000000
9230, 72.000000, 436.000000, 60.000000
9231, 36.000000, 440.000000, 60.000000
9232, 40.000000, 440.000000, 60.000000
9233, 44.000000, 440.000000, 60.000000
9234, 48.000000, 440.000000, 60.000000
9235, 52.000000, 440.000000, 60.000000
9236, 56.000000, 440.000000, 60.000000
9237, 60.000000, 440.000000, 60.000000
9238, 64.000000, 440.000000, 60.000000
9239, 68.000000, 440.000000, 60.000000
9240, 72.000000, 440.000000, 60.000000
9241, 36.000000, 444.000000, 60.000000
9242, 40.000000, 444.000000, 60.000000
9243, 44.000000, 444.000000, 60.000000
9244, 48.000000, 444.000000, 60.000000
9245, 52.000000, 444.000000, 60.000000
9246, 56.000000, 444.000000, 60.000000
9247, 60.000000, 444.000000, 60.000000
9248, 64.000000, 444.000000, 60.000000
9249, 68.000000, 444.000000, 60.000000
9250, 72.000000, 444.000000, 60.000000
9251, 36.000000, 448.000000, 60.000000
9252, 40.000000, 448.000000, 60.000000
9253, 44.000000, 448.000000, 60.000000
9254, 48.000000, 448.000000, 60.000000
9255, 52.000000, 448.000000, 60.000000
9256, 56.000000, 448.000000, 60.000000
9257, 60.000000, 448.000000, 60.000000
9258, 64.000000, 448.000000, 60.000000
9259, 68.000000, 448.000000, 60.000000
9260, 72.000000, 448.000000, 60.000000
9261, 36.000000, 452.000000, 60.000000
9262, 40.000000, 452.000000, 60.000000
9263, 44.000000, 452.000000, 60.000000
9264, 48.000000, 452.000000, 60.000000
9265, 52.000000, 452.000000, 60.000000
9266, 56.000000, 452.000000, 60.000000
9267, 60.000000, 452.000000, 60.000000
9268, 64.000000, 452.000000, 60.000000
9269, 68.000000, 452.000000, 60.000000
9270, 72.000000, 452.000000, 60.000000
9271, 36.000000, 456.000000, 60.000000
9272, 40.000000, 456.000000, 60.000000
9273, 44.000000, 456.000000, 60.000000
9274, 48.000000, 456.000000, 60.000000
9275, 52.000000, 456.000000, 60.000000
9276, 56.000000, 456.000000, 60.000000
9277, 60.000000, 456.000000, 60.000000
9278, 64.000000, 456.000000, 60.000000
9279, 68.000000, 456.000000, 60.000000
9280, 72.000000, 456.000000, 60.000000
9281, 36.000000, 228.000000, 64.000000
9282, 40.000000, 228.000000, 64.000000
9283, 44.000000, 228.000000, 64.000000
9284, 48.000000, 228.000000, 64.000000
9285, 52.000000, 228.000000, 64.000000
9286, 56.000000, 228.000000, 64.000000
9287, 60.000000, 228.000000, 64.000000
9288, 64.000000, 228.000000, 64.000000
9289, 68.000000, 228.000000, 64.000000
9290, 72.000000, 228.000000, 64.000000
9291, 36.000000, 232.000000, 64.000000
9292, 40.000000, 232.000000, 64.000000
9293, 44.000000, 232.000000, 64.000000
9294, 48.000000, 232.000000, 64.000000
9295, 52.000000, 232.000000, 64.000000
9296, 56.000000, 232.000000, 64.000000
9297, 60.000000, 232.000000, 64.000000
9298, 64.000000, 232.000000, 64.000000
9299, 68.000000, 232.000000, 64.000000
9300, 72.000000, 232.000000, 64.000000
9301, 36.000000, 236.000000, 64.000000
9302, 40.000000, 236.000000, 64.000000
9303, 44.000000, 236.000000, 64.000000
9304, 48.000000, 236.000000, 64.000000
9305, 52.000000, 236.000000, 64.000000
9306, 56.000000, 236.000000, 64.000000
9307, 60.000000, 236.000000, 64.000000
9308, 64.000000, 236.000000, 64.000000
9309, 68.000000, 236.000000, 64.000000
9310, 72.000000, 236.000000, 64.000000
9311, 36.000000, 240.000000, 64.000000
9312, 40.000000, 240.000000, 64.000000
9313, 44.000000, 240.000000, 64.000000
9314, 48.000000, 240.000000, 64.000000
9315, 52.000000, 240.000000, 64.000000
9316, 56.000000, 240.000000, 64.000000
9317, 60.000000, 240.000000, 64.000000
9318, 64.000000, 240.000000, 64.000000
9319, 68.000000, 240.000000, 64.000000
9320, 72.000000, 240.000000, 64.000000
9321, 36.000000, 244.000000, 64.000000
9322, 40.000000, 244.000000, 64.000000
9323, 44.000000, 244.000000, 64.000000
9324, 48.000000, 244.000000, 64.000000
9325, 52.000000, 244.000000, 64.000000
9326, 56.000000, 244.000000, 64.000000
9327, 60.000000, 244.000000, 64.000000
9328, 64.000000, 244.000000, 64.000000
9329, 68.000000, 244.000000, 64.000000
9330, 72.000000, 244.000000, 64.000000
9331, 36.000000, 248.000000, 64.000000
9332, 40.000000, 248.000000, 64.000000
9333, 44.000000, 248.000000, 64.000000
9334, 48.000000, 248.000000, 64.000000
9335, 52.000000, 248.000000, 64.000000
9336, 56.000000, 248.000000, 64.000000
9337, 60.000000, 248.000000, 64.000000
9338, 64.000000, 248.000000, 64.000000
9339, 68.000000, 248.000000, 64.000000
9340, 72.000000, 248.000000, 64.000000
9341, 36.000000, 252.000000, 64.000000
9342, 40.000000, 252.000000, 64.000000
9343, 44.000000, 252.000000, 64.000000
9344, 48.000000, 252.000000, 64.000000
9345, 52.000000, 252.000000, 64.000000
9346, 56.000000, 252.000000, 64.000000
9347, 60.000000, 252.000000, 64.000000
9348, 64.000000, 252.000000, 64.000000
9349, 68.000000, 252.000000, 64.000000
9350, 72.000000, 252.000000, 64.000000
9351, 36.000000, 256.000000, 64.000000
9352, 40.000000, 256.000000, 64.000000
9353, 44.000000, 256.000000, 64.000000
9354, 48.000000, 256.000000, 64.000000
9355, 52.000000, 256.000000, 64.000000
9356, 56.000000, 256.000000, 64.000000
9357, 60.000000, 256.000000, 64.000000
9358, 64.000000, 256.000000, 64.000000
9359, 68.000000, 256.000000, 64.000000
9360, 72.000000, 256.000000, 64.000000
9361, 36.000000, 260.000000, 64.000000
9362, 40.000000, 260.000000, 64.000000
9363, 44.000000, 260.000000, 64.000000
9364, 48.000000, 260.000000, 64.000000
9365, 52.000000, 260.000000, 64.000000
9366, 56.000000, 260.000000, 64.000000
9367, 60.000000, 260.000000, 64.000000
9368, 64.000000, 260.000000, 64.000000
9369, 68.000000, 260.000000, 64.000000
9370, 72.000000, 260.000000, 64.000000
9371, 36.000000, 264.000000, 64.000000
9372, 40.000000, 264.000000, 64.000000
9373, 44.000000, 264.000000, 64.000000
9374, 48.000000, 264.000000, 64.000000
9375, 52.000000, 264.000000, 64.000000
9376, 56.000000, 264.000000, 64.000000
9377, 60.000000, 264.000000, 64.000000
9378, 64.000000, 264.000000, 64.000000
9379, 68.000000, 264.000000, 64.000000
9380, 72.000000, 264.000000, 64.000000
9381, 36.000000, 268.000000, 64.000000
9382, 40.000000, 268.000000, 64.000000
9383, 44.000000, 268.000000, 64.000000
9384, 48.000000, 268.000000, 64.000000
9385, 52.000000, 268.000000, 64.000000
9386, 56.000000, 268.000000, 64.000000
9387, 60.000000, 268.000000, 64.000000
9388, 64.000000, 268.000000, 64.000000
9389, 68.000000, 268.000000, 64.000000
9390, 72.000000, 268.000000, 64.000000
9391, 36.000000, 272.000000, 64.000000
9392, 40.000000, 272.000000, 64.000000
9393, 44.000000, 272.000000, 64.000000
9394, 48.000000, 272.000000, 64.000000
9395, 52.000000, 272.000000, 64.000000
9396, 56.000000, 272.000000, 64.000000
9397, 60.000000, 272.000000, 64.000000
9398, 64.000000, 272.000000, 64.000000
9399, 68.000000, 272.000000, 64.000000
9400, 72.000000, 272.000000, 64.000000
9401, 36.000000, 276.000000, 64.000000
9402, 40.000000, 276.000000, 64.000000
9403, 44.000000, 276.000000, 64.000000
9404, 48.000000, 276.000000, 64.000000
9405, 52.000000, 276.000000, 64.000000
9406, 56.000000, 276.000000, 64.000000
9407, 60.000000, 276.000000, 64.000000
9408, 64.000000, 276.000000, 64.000000
9409, 68.000000, 276.000000, 64.000000
9410, 72.000000, 276.000000, 64.000000
9411, 36.000000, 280.000000, 64.000000
9412, 40.000000, 280.000000, 64.000000
9413, 44.000000, 280.000000, 64.000000
9414, 48.000000, 280.000000, 64.000000
9415, 52.000000, 280.000000, 64.000000
9416, 56.000000, 280.000000, 64.000000
9417, 60.000000, 280.000000, 64.000000
9418, 64.000000, 280.000000, 64.000000
9419, 68.000000, 280.000000, 64.000000
9420, 72.000000, 280.000000, 64.000000
9421, 36.000000, 284.000000, 64.000000
9422, 40.000000, 284.000000, 64.000000
9423, 44.000000, 284.000000, 64.000000
9424, 48.000000, 284.000000, 64.000000
9425, 52.000000, 284.000000, 64.000000
9426, 56.000000, 284.000000, 64.000000
9427, 60.000000, 284.000000, 64.000000
9428, 64.000000, 284.000000, 64.000000
9429, 68.000000, 284.000000, 64.000000
9430, 72.000000, 284.000000, 64.000000
9431, 36.000000, 288.000000, 64.000000
9432, 40.000000, 288.000000, 64.000000
9433, 44.000000, 288.000000, 64.000000
9434, 48.000000, 288.000000, 64.000000
9435, 52.000000, 288.000000, 64.000000
9436, 56.000000, 288.000000, 64.000000
9437, 60.000000, 288.000000, 64.000000
9438, 64.000000, 288.000000, 64.000000
9439, 68.000000, 288.000000, 64.000000
9440, 72.000000, 288.000000, 64.000000
9441, 36.000000, 292.000000, 64.000000
9442, 40.000000, 292.000000, 64.000000
9443, 44.000000, 292.000000, 64.000000
9444, 48.000000, 292.000000, 64.000000
9445, 52.000000, 292.000000, 64.000000
9446, 56.000000, 292.000000, 64.000000
9447, 60.000000, 292.000000, 64.000000
9448, 64.000000, 292.000000, 64.000000
9449, 68.000000, 292.000000, 64.000000
9450, 72.000000, 292.000000, 64.000000
9451, 36.000000, 296.000000, 64.000000
9452, 40.000000, 296.000000, 64.000000
9453, 44.000000, 296.000000, 64.000000
9454, 48.000000, 296.000000, 64.000000
9455, 52.000000, 296.000000, 64.000000
9456, 56.000000, 296.000000, 64.000000
9457, 60.000000, 296.000000, 64.000000
9458, 64.000000, 296.000000, 64.000000
9459, 68.000000, 296.000000, 64.000000
9460, 72.000000, 296.000000, 64.000000
9461, 36.000000, 300.000000, 64.000000
9462, 40.000000, 300.000000, 64.000000
9463, 44.000000, 300.000000, 64.000000
9464, 48.000000, 300.000000, 64.000000
9465, 52.000000, 300.000000, 64.000000
9466, 56.000000, 300.000000, 64.000000
9467, 60.000000, 300.000000, 64.000000
9468, 64.000000, 300.000000, 64.000000
9469, 68.000000, 300.000000, 64.000000
9470, 72.000000, 300.000000, 64.000000
9471, 36.000000, 304.000000, 64.000000
9472, 40.000000, 304.000000, 64.000000
9473, 44.000000, 304.000000, 64.000000
9474, 48.000000, 304.000000, 64.000000
9475, 52.000000, 304.000000, 64.000000
9476, 56.000000, 304.000000, 64.000000
9477, 60.000000, 304.000000, 64.000000
9478, 64.000000, 304.000000, 64.000000
9479, 68.000000, 304.000000, 64.000000
9480, 72.000000, 304.000000, 64.000000
9481, 36.000000, 308.000000, 64.000000
9482, 40.000000, 308.000000, 64.000000
9483, 44.000000, 308.000000, 64.000000
9484, 48.000000, 308.000000, 64.000000
9485, 52.000000, 308.000000, 64.000000
9486, 56.000000, 308.000000, 64.000000
9487, 60.000000, 308.000000, 64.000000
9488, 64.000000, 308.000000, 64.000000
9489, 68.000000, 308.000000, 64.000000
9490, 72.000000, 308.000000, 64.000000
9491, 36.000000, 312.000000, 64.000000
9492, 40.000000, 312.000000, 64.000000
9493, 44.000000, 312.000000, 64.000000
9494, 48.000000, 312.000000, 64.000000
9495, 52.000000, 312.000000, 64.000000
9496, 56.000000, 312.000000, 64.000000
9497, 60.000000, 312.000000, 64.000000
9498, 64.000000, 312.000000, 64.000000
9499, 68.000000, 312.000000, 64.000000
9500, 72.000000, 312.000000, 64.000000
9501, 36.000000, 316.000000, 64.000000
9502, 40.000000, 316.000000, 64.000000
9503, 44.000000, 316.000000, 64.000000
9504, 48.000000, 316.000000, 64.000000
9505, 52.000000, 316.000000, 64.000000
9506, 56.000000, 316.000000, 64.000000
9507, 60.000000, 316.000000, 64.000000
9508, 64.000000, 316.000000, 64.000000
9509, 68.000000, 316.000000, 64.000000
9510, 72.000000, 316.000000, 64.000000
9511, 36.000000, 320.000000, 64.000000
9512, 40.000000, 320.000000, 64.000000
9513, 44.000000, 320.000000, 64.000000
9514, 48.000000, 320.000000, 64.000000
9515, 52.000000, 320.000000, 64.000000
9516, 56.000000, 320.000000, 64.000000
9517, 60.000000, 320.000000, 64.000000
9518, 64.000000, 320.000000, 64.000000
9519, 68.000000, 320.000000, 64.000000
9520, 72.000000, 320.000000, 64.000000
9521, 36.000000, 324.000000, 64.000000
9522, 40.000000, 324.000000, 64.000000
9523, 44.000000, 324.000000, 64.000000
9524, 48.000000, 324.000000, 64.000000
9525, 52.000000, 324.000000, 64.000000
9526, 56.000000, 324.000000, 64.000000
9527, 60.000000, 324.000000, 64.000000
9528, 64.000000, 324.000000, 64.000000
9529, 68.000000, 324.000000, 64.000000
9530, 72.000000, 324.000000, 64.000000
9531, 36.000000, 328.000000, 64.000000
9532, 40.000000, 328.000000, 64.000000
9533, 44.000000, 328.000000, 64.000000
9534, 48.000000, 328.000000, 64.000000
9535, 52.000000, 328.000000, 64.000000
9536, 56.000000, 328.000000, 64.000000
9537, 60.000000, 328.000000, 64.000000
9538, 64.000000, 328.000000, 64.000000
9539, 68.000000, 328.000000, 64.000000
9540, 72.000000, 328.000000, 64.000000
9541, 36.000000, 332.000000, 64.000000
9542, 40.000000, 332.000000, 64.000000
9543, 44.000000, 332.000000, 64.000000
9544, 48.000000, 332.000000, 64.000000
9545, 52.000000, 332.000000, 64.000000
9546, 56.000000, 332.000000, 64.000000
9547, 60.000000, 332.000000, 64.000000
9548, 64.000000, 332.000000, 64.000000
9549, 68.000000, 332.000000, 64.000000
9550, 72.000000, 332.000000, 64.000000
9551, 36.000000, 336.000000, 64.000000
9552, 40.000000, 336.000000, 64.000000
9553, 44.000000, 336.000000, 64.000000
9554, 48.000000, 336.000000, 64.000000
9555, 52.000000, 336.000000, 64.000000
9556, 56.000000, 336.000000, 64.000000
9557, 60.000000, 336.000000, 64.000000
9558, 64.000000, 336.000000, 64.000000
9559, 68.000000, 336.000000, 64.000000
9560, 72.000000, 336.000000, 64.000000
9561, 36.000000, 340.000000, 64.000000
9562, 40.000000, 340.000000, 64.000000
9563, 44.000000, 340.000000, 64.000000
9564, 48.000000, 340.000000, 64.000000
9565, 52.000000, 340.000000, 64.000000
9566, 56.000000, 340.000000, 64.000000
9567, 60.000000, 340.000000, 64.000000
9568, 64.000000, 340.000000, 64.000000
9569, 68.000000, 340.000000, 64.000000
9570, 72.000000, 340.000000, 64.000000
9571, 36.000000, 344.000000, 64.000000
9572, 40.000000, 344.000000, 64.000000
9573, 44.000000, 344.000000, 64.000000
9574, 48.000000, 344.000000, 64.000000
9575, 52.000000, 344.000000, 64.000000
9576, 56.000000, 344.000000, 64.000000
9577, 60.000000, 344.000000, 64.000000
9578, 64.000000, 344.000000, 64.000000
9579, 68.000000, 344.000000, 64.000000
9580, 72.000000, 344.000000, 64.000000
9581, 36.000000, 348.000000, 64.000000
9582, 40.000000, 348.000000, 64.000000
9583, 44.000000, 348.000000, 64.000000
9584, 48.000000, 348.000000, 64.000000
9585, 52.000000, 348.000000, 64.000000
9586, 56.000000, 348.000000, 64.000000
9587, 60.000000, 348.000000, 64.000000
9588, 64.000000, 348.000000, 64.000000
9589, 68.000000, 348.000000, 64.000000
9590, 72.000000, 348.000000, 64.000000
9591, 36.000000, 352.000000, 64.000000
9592, 40.000000, 352.000000, 64.000000
9593, 44.000000, 352.000000, 64.000000
9594, 48.000000, 352.000000, 64.000000
9595, 52.000000, 352.000000, 64.000000
9596, 56.000000, 352.000000, 64.000000
9597, 60.000000, 352.000000, 64.000000
9598, 64.000000, 352.000000, 64.000000
9599, 68.000000, 352.000000, 64.000000
9600, 72.000000, 352.000000, 64.000000
9601, 36.000000, 356.000000, 64.000000
9602, 40.000000, 356.000000, 64.000000
9603, 44.000000, 356.000000, 64.000000
9604, 48.000000, 356.000000, 64.000000
9605, 52.000000, 356.000000, 64.000000
9606, 56.000000, 356.000000, 64.000000
9607, 60.000000, 356.000000, 64.000000
9608, 64.000000, 356.000000, 64.000000
9609, 68.000000, 356.000000, 64.000000
9610, 72.000000, 356.000000, 64.000000
9611, 36.000000, 360.000000, 64.000000
9612, 40.000000, 360.000000, 64.000000
9613, 44.000000, 360.000000, 64.000000
9614, 48.000000, 360.000000, 64.000000
9615, 52.000000, 360.000000, 64.000000
9616, 56.000000, 360.000000, 64.000000
9617, 60.000000, 360.000000, 64.000000
9618, 64.000000, 360.000000, 64.000000
9619, 68.000000, 360.000000, 64.000000
9620, 72.000000, 360.000000, 64.000000
9621, 36.000000, 364.000000, 64.000000
9622, 40.000000, 364.000000, 64.000000
9623, 44.000000, 364.000000, 64.000000
9624, 48.000000, 364.000000, 64.000000
9625, 52.000000, 364.000000, 64.000000
9626, 56.000000, 364.000000, 64.000000
9627, 60.000000, 364.000000, 64.000000
9628, 64.000000, 364.000000, 64.000000
9629, 68.000000, 364.000000, 64.000000
9630, 72.000000, 364.000000, 64.000000
9631, 36.000000, 368.000000, 64.000000
9632, 40.000000, 368.000000, 64.000000
9633, 44.000000, 368.000000, 64.000000
9634, 48.000000, 368.000000, 64.000000
9635, 52.000000, 368.000000, 64.000000
9636, 56.000000, 368.000000, 64.000000
9637, 60.000000, 368.000000, 64.000000
9638, 64.000000, 368.000000, 64.000000
9639, 68.000000, 368.000000, 64.000000
9640, 72.000000, 368.000000, 64.000000
9641, 36.000000, 372.000000, 64.000000
9642, 40.000000, 372.000000, 64.000000
9643, 44.000000, 372.000000, 64.000000
9644, 48.000000, 372.000000, 64.000000
9645, 52.000000, 372.000000, 64.000000
9646, 56.000000, 372.000000, 64.000000
9647, 60.000000, 372.000000, 64.000000
9648, 64.000000, 372.000000, 64.000000
9649, 68.000000, 372.000000, 64.000000
9650, 72.000000, 372.000000, 64.000000
9651, 36.000000, 376.000000, 64.000000
9652, 40.000000, 376.000000, 64.000000
9653, 44.000000, 376.000000, 64.000000
9654, 48.000000, 376.000000, 64.000000
9655, 52.000000, 376.000000, 64.000000
9656, 56.000000, 376.000000, 64.000000
9657, 60.000000, 376.000000, 64.000000
9658, 64.000000, 376.000000, 64.000000
9659, 68.000000, 376.000000, 64.000000
9660, 72.000000, 376.000000, 64.000000
9661, 36.000000, 380.000000, 64.000000
9662, 40.000000, 380.000000, 64.000000
9663, 44.000000, 380.000000, 64.000000
9664, 48.000000, 380.000000, 64.000000
9665, 52.000000, 380.000000, 64.000000
9666, 56.000000, 380.000000, 64.000000
9667, 60.000000, 380.000000, 64.000000
9668, 64.000000, 380.000000, 64.000000
9669, 68.000000, 380.000000, 64.000000
9670, 72.000000, 380.000000, 64.000000
9671, 36.000000, 384.000000, 64.000000
9672, 40.000000, 384.000000, 64.000000
9673, 44.000000, 384.000000, 64.000000
9674, 48.000000, 384.000000, 64.000000
9675, 52.000000, 384.000000, 64.000000
9676, 56.000000, 384.000000, 64.000000
9677, 60.000000, 384.000000, 64.000000
9678, 64.000000, 384.000000, 64.000000
9679, 68.000000, 384.000000, 64.000000
9680, 72.000000, 384.000000, 64.000000
9681, 36.000000, 388.000000, 64.000000
9682, 40.000000, 388.000000, 64.000000
9683, 44.000000, 388.000000, 64.000000
9684, 48.000000, 388.000000, 64.000000
9685, 52.000000, 388.000000, 64.000000
9686, 56.000000, 388.000000, 64.000000
9687, 60.000000, 388.000000, 64.000000
9688, 64.000000, 388.000000, 64.000000
9689, 68.000000, 388.000000, 64.000000
9690, 72.000000, 388.000000, 64.000000
9691, 36.000000, 392.000000, 64.000000
9692, 40.000000, 392.000000, 64.000000
9693, 44.000000, 392.000000, 64.000000
9694, 48.000000, 392.000000, 64.000000
9695, 52.000000, 392.000000, 64.000000
9696, 56.000000, 392.000000, 64.000000
9697, 60.000000, 392.000000, 64.000000
9698, 64.000000, 392.000000, 64.000000
9699, 68.000000, 392.000000, 64.000000
9700, 72.000000, 392.000000, 64.000000
9701, 36.000000, 396.000000, 64.000000
9702, 40.000000, 396.000000, 64.000000
9703, 44.000000, 396.000000, 64.000000
9704, 48.000000, 396.000000, 64.000000
9705, 52.000000, 396.000000, 64.000000
9706, 56.000000, 396.000000, 64.000000
9707, 60.000000, 396.000000, 64.000000
9708, 64.000000, 396.000000, 64.000000
9709, 68.000000, 396.000000, 64.000000
9710, 72.000000, 396.000000, 64.000000
9711, 36.000000, 400.000000, 64.000000
9712, 40.000000, 400.000000, 64.000000
9713, 44.000000, 400.000000, 64.000000
9714, 48.000000, 400.000000, 64.000000
9715, 52.000000, 400.000000, 64.000000
9716, 56.000000, 400.000000, 64.000000
9717, 60.000000, 400.000000, 64.000000
9718, 64.000000, 400.000000, 64.000000
9719, 68.000000, 400.000000, 64.000000
9720, 72.000000, 400.000000, 64.000000
9721, 36.000000, 404.000000, 64.000000
9722, 40.000000, 404.000000, 64.000000
9723, 44.000000, 404.000000, 64.000000
9724, 48.000000, 404.000000, 64.000000
9725, 52.000000, 404.000000, 64.000000
9726, 56.000000, 404.000000, 64.000000
9727, 60.000000, 404.000000, 64.000000
9728, 64.000000, 404.000000, 64.000000
9729, 68.000000, 404.000000, 64.000000
9730, 72.000000, 404.000000, 64.000000
9731, 36.000000, 408.000000, 64.000000
9732, 40.000000, 408.000000, 64.000000
9733, 44.000000, 408.000000, 64.000000
9734, 48.000000, 408.000000, 64.000000
9735, 52.000000, 408.000000, 64.000000
9736, 56.000000, 408.000000, 64.000000
9737, 60.000000, 408.000000, 64.000000
9738, 64.000000, 408.000000, 64.000000
9739, 68.000000, 408.000000, 64.000000
9740, 72.000000, 408.000000, 64.000000
9741, 36.000000, 412.000000, 64.000000
9742, 40.000000, 412.000000, 64.000000
9743, 44.000000, 412.000000, 64.000000
9744, 48.000000, 412.000000, 64.000000
9745, 52.000000, 412.000000, 64.000000
9746, 56.000000, 412.000000, 64.000000
9747, 60.000000, 412.000000, 64.000000
9748, 64.000000, 412.000000, 64.000000
9749, 68.000000, 412.000000, 64.000000
9750, 72.000000, 412.000000, 64.000000
9751, 36.000000, 416.000000, 64.000000
9752, 40.000000, 416.000000, 64.000000
9753, 44.000000, 416.000000, 64.000000
9754, 48.000000, 416.000000, 64.000000
9755, 52.000000, 416.000000, 64.000000
9756, 56.000000, 416.000000, 64.000000
9757, 60.000000, 416.000000, 64.000000
9758, 64.000000, 416.000000, 64.000000
9759, 68.000000, 416.000000, 64.000000
9760, 72.000000, 416.000000, 64.000000
9761, 36.000000, 420.000000, 64.000000
9762, 40.000000, 420.000000, 64.000000
9763, 44.000000, 420.000000, 64.000000
9764, 48.000000, 420.000000, 64.000000
9765, 52.000000, 420.000000, 64.000000
9766, 56.000000, 420.000000, 64.000000
9767, 60.000000, 420.000000, 64.000000
9768, 64.000000, 420.000000, 64.000000
9769, 68.000000, 420.000000, 64.000000
9770, 72.000000, 420.000000, 64.000000
9771, 36.000000, 424.000000, 64.000000
9772, 40.000000, 424.000000, 64.000000
9773, 44.000000, 424.000000, 64.000000
9774, 48.000000, 424.000000, 64.000000
9775, 52.000000, 424.000000, 64.000000
9776, 56.000000, 424.000000, 64.000000
9777, 60.000000, 424.000000, 64.000000
9778, 64.000000, 424.000000, 64.000000
9779, 68.000000, 424.000000, 64.000000
9780, 72.000000, 424.000000, 64.000000
9781, 36.000000, 428.000000, 64.000000
9782, 40.000000, 428.000000, 64.000000
9783, 44.000000, 428.000000, 64.000000
9784, 48.000000, 428.000000, 64.000000
9785, 52.000000, 428.000000, 64.000000
9786, 56.000000, 428.000000, 64.000000
9787, 60.000000, 428.000000, 64.000000
9788, 64.000000, 428.000000, 64.000000
9789, 68.000000, 428.000000, 64.000000
9790, 72.000000, 428.000000, 64.000000
9791, 36.000000, 432.000000, 64.000000
9792, 40.000000, 432.000000, 64.000000
9793, 44.000000, 432.000000, 64.000000
9794, 48.000000, 432.000000, 64.000000
9795, 52.000000, 432.000000, 64.000000
9796, 56.000000, 432.000000, 64.000000
9797, 60.000000, 432.000000, 64.000000
9798, 64.000000, 432.000000, 64.000000
9799, 68.000000, 432.000000, 64.000000
9800, 72.000000, 432.000000, 64.000000
9801, 36.000000, 436.000000, 64.000000
9802, 40.000000, 436.000000, 64.000000
9803, 44.000000, 436.000000, 64.000000
9804, 48.000000, 436.000000, 64.000000
9805, 52.000000, 436.000000, 64.000000
9806, 56.000000, 436.000000, 64.000000
9807, 60.000000, 436.000000, 64.000000
9808, 64.000000, 436.000000, 64.000000
9809, 68.000000, 436.000000, 64.000000
9810, 72.000000, 436.000000, 64.000000
9811, 36.000000, 440.000000, 64.000000
9812, 40.000000, 440.000000, 64.000000
9813, 44.000000, 440.000000, 64.000000
9814, 48.000000, 440.000000, 64.000000
9815, 52.000000, 440.000000, 64.000000
9816, 56.000000, 440.000000, 64.000000
9817, 60.000000, 440.000000, 64.000000
9818, 64.000000, 440.000000, 64.000000
9819, 68.000000, 440.000000, 64.000000
9820, 72.000000, 440.000000, 64.000000
9821, 36.000000, 444.000000, 64.000000
9822, 40.000000, 444.000000, 64.000000
9823, 44.000000, 444.000000, 64.000000
9824, 48.000000, 444.000000, 64.000000
9825, 52.000000, 444.000000, 64.000000
9826, 56.000000, 444.000000, 64.000000
9827, 60.000000, 444.000000, 64.000000
9828, 64.000000, 444.000000, 64.000000
9829, 68.000000, 444.000000, 64.000000
9830, 72.000000, 444.000000, 64.000000
9831, 36.000000, 448.000000, 64.000000
9832, 40.000000, 448.000000, 64.000000
9833, 44.000000, 448.000000, 64.000000
9834, 48.000000, 448.000000, 64.000000
9835, 52.000000, 448.000000, 64.000000
9836, 56.000000, 448.000000, 64.000000
9837, 60.000000, 448.000000, 64.000000
9838, 64.000000, 448.000000, 64.000000
9839, 68.000000, 448.000000, 64.000000
9840, 72.000000, 448.000000, 64.000000
9841, 36.000000, 452.000000, 64.000000
9842, 40.000000, 452.000000, 64.000000
9843, 44.000000, 452.000000, 64.000000
9844, 48.000000, 452.000000, 64.000000
9845, 52.000000, 452.000000, 64.000000
9846, 56.000000, 452.000000, 64.000000
9847, 60.000000, 452.000000, 64.000000
9848, 64.000000, 452.000000, 64.000000
9849, 68.000000, 452.000000, 64.000000
9850, 72.000000, 452.000000, 64.000000
9851, 36.000000, 456.000000, 64.000000
9852, 40.000000, 456.000000, 64.000000
9853, 44.000000, 456.000000, 64.000000
9854, 48.000000, 456.000000, 64.000000
9855, 52.000000, 456.000000, 64.000000
9856, 56.000000, 456.000000, 64.000000
9857, 60.000000, 456.000000, 64.000000
9858, 64.000000, 456.000000, 64.000000
9859, 68.000000, 456.000000, 64.000000
9860, 72.000000, 456.000000, 64.000000
9861, 36.000000, 228.000000, 68.000000
9862, 40.000000, 228.000000, 68.000000
9863, 44.000000, 228.000000, 68.000000
9864, 48.000000, 228.000000, 68.000000
9865, 52.000000, 228.000000, 68.000000
9866, 56.000000, 228.000000, 68.000000
9867, 60.000000, 228.000000, 68.000000
9868, 64.000000, 228.000000, 68.000000
9869, 68.000000, 228.000000, 68.000000
9870, 72.000000, 228.000000, 68.000000
9871, 36.000000, 232.000000, 68.000000
9872, 40.000000, 232.000000, 68.000000
9873, 44.000000, 232.000000, 68.000000
9874, 48.000000, 232.000000, 68.000000
9875, 52.000000, 232.000000, 68.000000
9876, 56.000000, 232.000000, 68.000000
9877, 60.000000, 232.000000, 68.000000
9878, 64.000000, 232.000000, 68.000000
9879, 68.000000, 232.000000, 68.000000
9880, 72.000000, 232.000000, 68.000000
9881, 36.000000, 236.000000, 68.000000
9882, 40.000000, 236.000000, 68.000000
9883, 44.000000, 236.000000, 68.000000
9884, 48.000000, 236.000000, 68.000000
9885, 52.000000, 236.000000, 68.000000
9886, 56.000000, 236.000000, 68.000000
9887, 60.000000, 236.000000, 68.000000
9888, 64.000000, 236.000000, 68.000000
9889, 68.000000, 236.000000, 68.000000
9890, 72.000000, 236.000000, 68.000000
9891, 36.000000, 240.000000, 68.000000
9892, 40.000000, 240.000000, 68.000000
9893, 44.000000, 240.000000, 68.000000
9894, 48.000000, 240.000000, 68.000000
9895, 52.000000, 240.000000, 68.000000
9896, 56.000000, 240.000000, 68.000000
9897, 60.000000, 240.000000, 68.000000
9898, 64.000000, 240.000000, 68.000000
9899, 68.000000, 240.000000, 68.000000
9900, 72.000000, 240.000000, 68.000000
9901, 36.000000, 244.000000, 68.000000
9902, 40.000000, 244.000000, 68.000000
9903, 44.000000, 244.000000, 68.000000
9904, 48.000000, 244.000000, 68.000000
9905, 52.000000, 244.000000, 68.000000
9906, 56.000000, 244.000000, 68.000000
9907, 60.000000, 244.000000, 68.000000
9908, 64.000000, 244.000000, 68.000000
9909, 68.000000, 244.000000, 68.000000
9910, 72.000000, 244.000000, 68.000000
9911, 36.000000, 248.000000, 68.000000
9912, 40.000000, 248.000000, 68.000000
9913, 44.000000, 248.000000, 68.000000
9914, 48.000000, 248.000000, 68.000000
9915, 52.000000, 248.000000, 68.000000
9916, 56.000000, 248.000000, 68.000000
9917, 60.000000, 248.000000, 68.000000
9918, 64.000000, 248.000000, 68.000000
9919, 68.000000, 248.000000, 68.000000
9920, 72.000000, 248.000000, 68.000000
9921, 36.000000, 252.000000, 68.000000
9922, 40.000000, 252.000000, 68.000000
9923, 44.000000, 252.000000, 68.000000
9924, 48.000000, 252.000000, 68.000000
9925, 52.000000, 252.000000, 68.000000
9926, 56.000000, 252.000000, 68.000000
9927, 60.000000, 252.000000, 68.000000
9928, 64.000000, 252.000000, 68.000000
9929, 68.000000, 252.000000, 68.000000
9930, 72.000000, 252.000000, 68.000000
9931, 36.000000, 256.000000, 68.000000
9932, 40.000000, 256.000000, 68.000000
9933, 44.000000, 256.000000, 68.000000
9934, 48.000000, 256.000000, 68.000000
9935, 52.000000, 256.000000, 68.000000
9936, 56.000000, 256.000000, 68.000000
9937, 60.000000, 256.000000, 68.000000
9938, 64.000000, 256.000000, 68.000000
9939, 68.000000, 256.000000, 68.000000
9940, 72.000000, 256.000000, 68.000000
9941, 36.000000, 260.000000, 68.000000
9942, 40.000000, 260.000000, 68.000000
9943, 44.000000, 260.000000, 68.000000
9944, 48.000000, 260.000000, 68.000000
9945, 52.000000, 260.000000, 68.000000
9946, 56.000000, 260.000000, 68.000000
9947, 60.000000, 260.000000, 68.000000
9948, 64.000000, 260.000000, 68.000000
9949, 68.000000, 260.000000, 68.000000
9950, 72.000000, 260.000000, 68.000000
9951, 36.000000, 264.000000, 68.000000
9952, 40.000000, 264.000000, 68.000000
9953, 44.000000, 264.000000, 68.000000
9954, 48.000000, 264.000000, 68.000000
9955, 52.000000, 264.000000, 68.000000
9956, 56.000000, 264.000000, 68.000000
9957, 60.000000, 264.000000, 68.000000
9958, 64.000000, 264.000000, 68.000000
9959, 68.000000, 264.000000, 68.000000
9960, 72.000000, 264.000000, 68.000000
9961, 36.000000, 268.000000, 68.000000
9962, 40.000000, 268.000000, 68.000000
9963, 44.000000, 268.000000, 68.000000
9964, 48.000000, 268.000000, 68.000000
9965, 52.000000, 268.000000, 68.000000
9966, 56.000000, 268.000000, 68.000000
9967, 60.000000, 268.000000, 68.000000
9968, 64.000000, 268.000000, 68.000000
9969, 68.000000, 268.000000, 68.000000
9970, 72.000000, 268.000000, 68.000000
9971, 36.000000, 272.000000, 68.000000
9972, 40.000000, 272.000000, 68.000000
9973, 44.000000, 272.000000, 68.000000
9974, 48.000000, 272.000000, 68.000000
9975, 52.000000, 272.000000, 68.000000
9976, 56.000000, 272.000000, 68.000000
9977, 60.000000, 272.000000, 68.000000
9978, 64.000000, 272.000000, 68.000000
9979, 68.000000, 272.000000, 68.000000
9980, 72.000000, 272.000000, 68.000000
9981, 36.000000, 276.000000, 68.000000
9982, 40.000000, 276.000000, 68.000000
9983, 44.000000, 276.000000, 68.000000
9984, 48.000000, 276.000000, 68.000000
9985, 52.000000, 276.000000, 68.000000
9986, 56.000000, 276.000000, 68.000000
9987, 60.000000, 276.000000, 68.000000
9988, 64.000000, 276.000000, 68.000000
9989, 68.000000, 276.000000, 68.000000
9990, 72.000000, 276.000000, 68.000000
9991, 36.000000, 280.000000, 68.000000
9992, 40.000000, 280.000000, 68.000000
9993, 44.000000, 280.000000, 68.000000
9994, 48.000000, 280.000000, 68.000000
9995, 52.000000, 280.000000, 68.000000
9996, 56.000000, 280.000000, 68.000000
9997, 60.000000, 280.000000, 68.000000
9998, 64.000000, 280.000000, 68.000000
9999, 68.000000, 280.000000, 68.000000
10000, 72.000000, 280.000000, 68.000000
10001, 36.000000, 284.000000, 68.000000
10002, 40.000000, 284.000000, 68.000000
10003, 44.000000, 284.000000, 68.000000
10004, 48.000000, 284.000000, 68.000000
10005, 52.000000, 284.000000, 68.000000
10006, 56.000000, 284.000000, 68.000000
10007, 60.000000, 284.000000, 68.000000
10008, 64.000000, 284.000000, 68.000000
10009, 68.000000, 284.000000, 68.000000
10010, 72.000000, 284.000000, 68.000000
10011, 36.000000, 288.000000, 68.000000
10012, 40.000000, 288.000000, 68.000000
10013, 44.000000, 288.000000, 68.000000
10014, 48.000000, 288.000000, 68.000000
10015, 52.000000, 288.000000, 68.000000
10016, 56.000000, 288.000000, 68.000000
10017, 60.000000, 288.000000, 68.000000
10018, 64.000000, 288.000000, 68.000000
10019, 68.000000, 288.000000, 68.000000
10020, 72.000000, 288.000000, 68.000000
10021, 36.000000, 292.000000, 68.000000
10022, 40.000000, 292.000000, 68.000000
10023, 44.000000, 292.000000, 68.000000
10024, 48.000000, 292.000000, 68.000000
10025, 52.000000, 292.000000, 68.000000
10026, 56.000000, 292.000000, 68.000000
10027, 60.000000, 292.000000, 68.000000
10028, 64.000000, 292.000000, 68.000000
10029, 68.000000, 292.000000, 68.000000
10030, 72.000000, 292.000000, 68.000000
10031, 36.000000, 296.000000, 68.000000
10032, 40.000000, 296.000000, 68.000000
10033, 44.000000, 296.000000, 68.000000
10034, 48.000000, 296.000000, 68.000000
10035, 52.000000, 296.000000, 68.000000
10036, 56.000000, 296.000000, 68.000000
10037, 60.000000, 296.000000, 68.000000
10038, 64.000000, 296.000000, 68.000000
10039, 68.000000, 296.000000, 68.000000
10040, 72.000000, 296.000000, 68.000000
10041, 36.000000, 300.000000, 68.000000
10042, 40.000000, 300.000000, 68.000000
10043, 44.000000, 300.000000, 68.000000
10044, 48.000000, 300.000000, 68.000000
10045, 52.000000, 300.000000, 68.000000
10046, 56.000000, 300.000000, 68.000000
10047, 60.000000, 300.000000, 68.000000
10048, 64.000000, 300.000000, 68.000000
10049, 68.000000, 300.000000, 68.000000
10050, 72.000000, 300.000000, 68.000000
10051, 36.000000, 304.000000, 68.000000
10052, 40.000000, 304.000000, 68.000000
10053, 44.000000, 304.000000, 68.000000
10054, 48.000000, 304.000000, 68.000000
10055, 52.000000, 304.000000, 68.000000
10056, 56.000000, 304.000000, 68.000000
10057, 60.000000, 304.000000, 68.000000
10058, 64.000000, 304.000000, 68.000000
10059, 68.000000, 304.000000, 68.000000
10060, 72.000000, 304.000000, 68.000000
10061, 36.000000, 308.000000, 68.000000
10062, 40.000000, 308.000000, 68.000000
10063, 44.000000, 308.000000, 68.000000
10064, 48.000000, 308.000000, 68.000000
10065, 52.000000, 308.000000, 68.000000
10066, 56.000000, 308.000000, 68.000000
10067, 60.000000, 308.000000, 68.000000
10068, 64.000000, 308.000000, 68.000000
10069, 68.000000, 308.000000, 68.000000
10070, 72.000000, 308.000000, 68.000000
10071, 36.000000, 312.000000, 68.000000
10072, 40.000000, 312.000000, 68.000000
10073, 44.000000, 312.000000, 68.000000
10074, 48.000000, 312.000000, 68.000000
10075, 52.000000, 312.000000, 68.000000
10076, 56.000000, 312.000000, 68.000000
10077, 60.000000, 312.000000, 68.000000
10078, 64.000000, 312.000000, 68.000000
10079, 68.000000, 312.000000, 68.000000
10080, 72.000000, 312.000000, 68.000000
10081, 36.000000, 316.000000, 68.000000
10082, 40.000000, 316.000000, 68.000000
10083, 44.000000, 316.000000, 68.000000
10084, 48.000000, 316.000000, 68.000000
10085, 52.000000, 316.000000, 68.000000
10086, 56.000000, 316.000000, 68.000000
10087, 60.000000, 316.000000, 68.000000
10088, 64.000000, 316.000000, 68.000000
10089, 68.000000, 316.000000, 68.000000
10090, 72.000000, 316.000000, 68.000000
10091, 36.000000, 320.000000, 68.000000
10092, 40.000000, 320.000000, 68.000000
10093, 44.000000, 320.000000, 68.000000
10094, 48.000000, 320.000000, 68.000000
10095, 52.000000, 320.000000, 68.000000
10096, 56.000000, 320.000000, 68.000000
10097, 60.000000, 320.000000, 68.000000
10098, 64.000000, 320.000000, 68.000000
10099, 68.000000, 320.000000, 68.000000
10100, 72.000000, 320.000000, 68.000000
10101, 36.000000, 324.000000, 68.000000
10102, 40.000000, 324.000000, 68.000000
10103, 44.000000, 324.000000, 68.000000
10104, 48.000000, 324.000000, 68.000000
10105, 52.000000, 324.000000, 68.000000
10106, 56.000000, 324.000000, 68.000000
10107, 60.000000, 324.000000, 68.000000
10108, 64.000000, 324.000000, 68.000000
10109, 68.000000, 324.000000, 68.000000
10110, 72.000000, 324.000000, 68.000000
10111, 36.000000, 328.000000, 68.000000
10112, 40.000000, 328.000000, 68.000000
10113, 44.000000, 328.000000, 68.000000
10114, 48.000000, 328.000000, 68.000000
10115, 52.000000, 328.000000, 68.000000
10116, 56.000000, 328.000000, 68.000000
10117, 60.000000, 328.000000, 68.000000
10118, 64.000000, 328.000000, 68.000000
10119, 68.000000, 328.000000, 68.000000
10120, 72.000000, 328.000000, 68.000000
10121, 36.000000, 332.000000, 68.000000
10122, 40.000000, 332.000000, 68.000000
10123, 44.000000, 332.000000, 68.000000
10124, 48.000000, 332.000000, 68.000000
10125, 52.000000, 332.000000, 68.000000
10126, 56.000000, 332.000000, 68.000000
10127, 60.000000, 332.000000, 68.000000
10128, 64.000000, 332.000000, 68.000000
10129, 68.000000, 332.000000, 68.000000
10130, 72.000000, 332.000000, 68.000000
10131, 36.000000, 336.000000, 68.000000
10132, 40.000000, 336.000000, 68.000000
10133, 44.000000, 336.000000, 68.000000
10134, 48.000000, 336.000000, 68.000000
10135, 52.000000, 336.000000, 68.000000
10136, 56.000000, 336.000000, 68.000000
10137, 60.000000, 336.000000, 68.000000
10138, 64.000000, 336.000000, 68.000000
10139, 68.000000, 336.000000, 68.000000
10140, 72.000000, 336.000000, 68.000000
10141, 36.000000, 340.000000, 68.000000
10142, 40.000000, 340.000000, 68.000000
10143, 44.000000, 340.000000, 68.000000
10144, 48.000000, 340.000000, 68.000000
10145, 52.000000, 340.000000, 68.000000
10146, 56.000000, 340.000000, 68.000000
10147, 60.000000, 340.000000, 68.000000
10148, 64.000000, 340.000000, 68.000000
10149, 68.000000, 340.000000, 68.000000
10150, 72.000000, 340.000000, 68.000000
10151, 36.000000, 344.000000, 68.000000
10152, 40.000000, 344.000000, 68.000000
10153, 44.000000, 344.000000, 68.000000
10154, 48.000000, 344.000000, 68.000000
10155, 52.000000, 344.000000, 68.000000
10156, 56.000000, 344.000000, 68.000000
10157, 60.000000, 344.000000, 68.000000
10158, 64.000000, 344.000000, 68.000000
10159, 68.000000, 344.000000, 68.000000
10160, 72.000000, 344.000000, 68.000000
10161, 36.000000, 348.000000, 68.000000
10162, 40.000000, 348.000000, 68.000000
10163, 44.000000, 348.000000, 68.000000
10164, 48.000000, 348.000000, 68.000000
10165, 52.000000, 348.000000, 68.000000
10166, 56.000000, 348.000000, 68.000000
10167, 60.000000, 348.000000, 68.000000
10168, 64.000000, 348.000000, 68.000000
10169, 68.000000, 348.000000, 68.000000
10170, 72.000000, 348.000000, 68.000000
10171, 36.000000, 352.000000, 68.000000
10172, 40.000000, 352.000000, 68.000000
10173, 44.000000, 352.000000, 68.000000
10174, 48.000000, 352.000000, 68.000000
10175, 52.000000, 352.000000, 68.000000
10176, 56.000000, 352.000000, 68.000000
10177, 60.000000, 352.000000, 68.000000
10178, 64.000000, 352.000000, 68.000000
10179, 68.000000, 352.000000, 68.000000
10180, 72.000000, 352.000000, 68.000000
10181, 36.000000, 356.000000, 68.000000
10182, 40.000000, 356.000000, 68.000000
10183, 44.000000, 356.000000, 68.000000
10184, 48.000000, 356.000000, 68.000000
10185, 52.000000, 356.000000, 68.000000
10186, 56.000000, 356.000000, 68.000000
10187, 60.000000, 356.000000, 68.000000
10188, 64.000000, 356.000000, 68.000000
10189, 68.000000, 356.000000, 68.000000
10190, 72.000000, 356.000000, 68.000000
10191, 36.000000, 360.000000, 68.000000
10192, 40.000000, 360.000000, 68.000000
10193, 44.000000, 360.000000, 68.000000
10194, 48.000000, 360.000000, 68.000000
10195, 52.000000, 360.000000, 68.000000
10196, 56.000000, 360.000000, 68.000000
10197, 60.000000, 360.000000, 68.000000
10198, 64.000000, 360.000000, 68.000000
10199, 68.000000, 360.000000, 68.000000
10200, 72.000000, 360.000000, 68.000000
10201, 36.000000, 364.000000, 68.000000
10202, 40.000000, 364.000000, 68.000000
10203, 44.000000, 364.000000, 68.000000
10204, 48.000000, 364.000000, 68.000000
10205, 52.000000, 364.000000, 68.000000
10206, 56.000000, 364.000000, 68.000000
10207, 60.000000, 364.000000, 68.000000
10208, 64.000000, 364.000000, 68.000000
10209, 68.000000, 364.000000, 68.000000
10210, 72.000000, 364.000000, 68.000000
10211, 36.000000, 368.000000, 68.000000
10212, 40.000000, 368.000000, 68.000000
10213, 44.000000, 368.000000, 68.000000
10214, 48.000000, 368.000000, 68.000000
10215, 52.000000, 368.000000, 68.000000
10216, 56.000000, 368.000000, 68.000000
10217, 60.000000, 368.000000, 68.000000
10218, 64.000000, 368.000000, 68.000000
10219, 68.000000, 368.000000, 68.000000
10220, 72.000000, 368.000000, 68.000000
10221, 36.000000, 372.000000, 68.000000
10222, 40.000000, 372.000000, 68.000000
10223, 44.000000, 372.000000, 68.000000
10224, 48.000000, 372.000000, 68.000000
10225, 52.000000, 372.000000, 68.000000
10226, 56.000000, 372.000000, 68.000000
10227, 60.000000, 372.000000, 68.000000
10228, 64.000000, 372.000000, 68.000000
10229, 68.000000, 372.000000, 68.000000
10230, 72.000000, 372.000000, 68.000000
10231, 36.000000, 376.000000, 68.000000
10232, 40.000000, 376.000000, 68.000000
10233, 44.000000, 376.000000, 68.000000
10234, 48.000000, 376.000000, 68.000000
10235, 52.000000, 376.000000, 68.000000
10236, 56.000000, 376.000000, 68.000000
10237, 60.000000, 376.000000, 68.000000
10238, 64.000000, 376.000000, 68.000000
10239, 68.000000, 376.000000, 68.000000
10240, 72.000000, 376.000000, 68.000000
10241, 36.000000, 380.000000, 68.000000
10242, 40.000000, 380.000000, 68.000000
10243, 44.000000, 380.000000, 68.000000
10244, 48.000000, 380.000000, 68.000000
10245, 52.000000, 380.000000, 68.000000
10246, 56.000000, 380.000000, 68.000000
10247, 60.000000, 380.000000, 68.000000
10248, 64.000000, 380.000000, 68.000000
10249, 68.000000, 380.000000, 68.000000
10250, 72.000000, 380.000000, 68.000000
10251, 36.000000, 384.000000, 68.000000
10252, 40.000000, 384.000000, 68.000000
10253, 44.000000, 384.000000, 68.000000
10254, 48.000000, 384.000000, 68.000000
10255, 52.000000, 384.000000, 68.000000
10256, 56.000000, 384.000000, 68.000000
10257, 60.000000, 384.000000, 68.000000
10258, 64.000000, 384.000000, 68.000000
10259, 68.000000, 384.000000, 68.000000
10260, 72.000000, 384.000000, 68.000000
10261, 36.000000, 388.000000, 68.000000
10262, 40.000000, 388.000000, 68.000000
10263, 44.000000, 388.000000, 68.000000
10264, 48.000000, 388.000000, 68.000000
10265, 52.000000, 388.000000, 68.000000
10266, 56.000000, 388.000000, 68.000000
10267, 60.000000, 388.000000, 68.000000
10268, 64.000000, 388.000000, 68.000000
10269, 68.000000, 388.000000, 68.000000
10270, 72.000000, 388.000000, 68.000000
10271, 36.000000, 392.000000, 68.000000
10272, 40.000000, 392.000000, 68.000000
10273, 44.000000, 392.000000, 68.000000
10274, 48.000000, 392.000000, 68.000000
10275, 52.000000, 392.000000, 68.000000
10276, 56.000000, 392.000000, 68.000000
10277, 60.000000, 392.000000, 68.000000
10278, 64.000000, 392.000000, 68.000000
10279, 68.000000, 392.000000, 68.000000
10280, 72.000000, 392.000000, 68.000000
10281, 36.000000, 396.000000, 68.000000
10282, 40.000000, 396.000000, 68.000000
10283, 44.000000, 396.000000, 68.000000
10284, 48.000000, 396.000000, 68.000000
10285, 52.000000, 396.000000, 68.000000
10286, 56.000000, 396.000000, 68.000000
10287, 60.000000, 396.000000, 68.000000
10288, 64.000000, 396.000000, 68.000000
10289, 68.000000, 396.000000, 68.000000
10290, 72.000000, 396.000000, 68.000000
10291, 36.000000, 400.000000, 68.000000
10292, 40.000000, 400.000000, 68.000000
10293, 44.000000, 400.000000, 68.000000
10294, 48.000000, 400.000000, 68.000000
10295, 52.000000, 400.000000, 68.000000
10296, 56.000000, 400.000000, 68.000000
10297, 60.000000, 400.000000, 68.000000
10298, 64.000000, 400.000000, 68.000000
10299, 68.000000, 400.000000, 68.000000
10300, 72.000000, 400.000000, 68.000000
10301, 36.000000, 404.000000, 68.000000
10302, 40.000000, 404.000000, 68.000000
10303, 44.000000, 404.000000, 68.000000
10304, 48.000000, 404.000000, 68.000000
10305, 52.000000, 404.000000, 68.000000
10306, 56.000000, 404.000000, 68.000000
10307, 60.000000, 404.000000, 68.000000
10308, 64.000000, 404.000000, 68.000000
10309, 68.000000, 404.000000, 68.000000
10310, 72.000000, 404.000000, 68.000000
10311, 36.000000, 408.000000, 68.000000
10312, 40.000000, 408.000000, 68.000000
10313, 44.000000, 408.000000, 68.000000
10314, 48.000000, 408.000000, 68.000000
10315, 52.000000, 408.000000, 68.000000
10316, 56.000000, 408.000000, 68.000000
10317, 60.000000, 408.000000, 68.000000
10318, 64.000000, 408.000000, 68.000000
10319, 68.000000, 408.000000, 68.000000
10320, 72.000000, 408.000000, 68.000000
10321, 36.000000, 412.000000, 68.000000
10322, 40.000000, 412.000000, 68.000000
10323, 44.000000, 412.000000, 68.000000
10324, 48.000000, 412.000000, 68.000000
10325, 52.000000, 412.000000, 68.000000
10326, 56.000000, 412.000000, 68.000000
10327, 60.000000, 412.000000, 68.000000
10328, 64.000000, 412.000000, 68.000000
10329, 68.000000, 412.000000, 68.000000
10330, 72.000000, 412.000000, 68.000000
10331, 36.000000, 416.000000, 68.000000
10332, 40.000000, 416.000000, 68.000000
10333, 44.000000, 416.000000, 68.000000
10334, 48.000000, 416.000000, 68.000000
10335, 52.000000, 416.000000, 68.000000
10336, 56.000000, 416.000000, 68.000000
10337, 60.000000, 416.000000, 68.000000
10338, 64.000000, 416.000000, 68.000000
10339, 68.000000, 416.000000, 68.000000
10340, 72.000000, 416.000000, 68.000000
10341, 36.000000, 420.000000, 68.000000
10342, 40.000000, 420.000000, 68.000000
10343, 44.000000, 420.000000, 68.000000
10344, 48.000000, 420.000000, 68.000000
10345, 52.000000, 420.000000, 68.000000
10346, 56.000000, 420.000000, 68.000000
10347, 60.000000, 420.000000, 68.000000
10348, 64.000000, 420.000000, 68.000000
10349, 68.000000, 420.000000, 68.000000
10350, 72.000000, 420.000000, 68.000000
10351, 36.000000, 424.000000, 68.000000
10352, 40.000000, 424.000000, 68.000000
10353, 44.000000, 424.000000, 68.000000
10354, 48.000000, 424.000000, 68.000000
10355, 52.000000, 424.000000, 68.000000
10356, 56.000000, 424.000000, 68.000000
10357, 60.000000, 424.000000, 68.000000
10358, 64.000000, 424.000000, 68.000000
10359, 68.000000, 424.000000, 68.000000
10360, 72.000000, 424.000000, 68.000000
10361, 36.000000, 428.000000, 68.000000
10362, 40.000000, 428.000000, 68.000000
10363, 44.000000, 428.000000, 68.000000
10364, 48.000000, 428.000000, 68.000000
10365, 52.000000, 428.000000, 68.000000
10366, 56.000000, 428.000000, 68.000000
10367, 60.000000, 428.000000, 68.000000
10368, 64.000000, 428.000000, 68.000000
10369, 68.000000, 428.000000, 68.000000
10370, 72.000000, 428.000000, 68.000000
10371, 36.000000, 432.000000, 68.000000
10372, 40.000000, 432.000000, 68.000000
10373, 44.000000, 432.000000, 68.000000
10374, 48.000000, 432.000000, 68.000000
10375, 52.000000, 432.000000, 68.000000
10376, 56.000000, 432.000000, 68.000000
10377, 60.000000, 432.000000, 68.000000
10378, 64.000000, 432.000000, 68.000000
10379, 68.000000, 432.000000, 68.000000
10380, 72.000000, 432.000000, 68.000000
10381, 36.000000, 436.000000, 68.000000
10382, 40.000000, 436.000000, 68.000000
10383, 44.000000, 436.000000, 68.000000
10384, 48.000000, 436.000000, 68.000000
10385, 52.000000, 436.000000, 68.000000
10386, 56.000000, 436.000000, 68.000000
10387, 60.000000, 436.000000, 68.000000
10388, 64.000000, 436.000000, 68.000000
10389, 68.000000, 436.000000, 68.000000
10390, 72.000000, 436.000000, 68.000000
10391, 36.000000, 440.000000, 68.000000
10392, 40.000000, 440.000000, 68.000000
10393, 44.000000, 440.000000, 68.000000
10394, 48.000000, 440.000000, 68.000000
10395, 52.000000, 440.000000, 68.000000
10396, 56.000000, 440.000000, 68.000000
10397, 60.000000, 440.000000, 68.000000
10398, 64.000000, 440.000000, 68.000000
10399, 68.000000, 440.000000, 68.000000
10400, 72.000000, 440.000000, 68.000000
10401, 36.000000, 444.000000, 68.000000
10402, 40.000000, 444.000000, 68.000000
10403, 44.000000, 444.000000, 68.000000
10404, 48.000000, 444.000000, 68.000000
10405, 52.000000, 444.000000, 68.000000
10406, 56.000000, 444.000000, 68.000000
10407, 60.000000, 444.000000, 68.000000
10408, 64.000000, 444.000000, 68.000000
10409, 68.000000, 444.000000, 68.000000
10410, 72.000000, 444.000000, 68.000000
10411, 36.000000, 448.000000, 68.000000
10412, 40.000000, 448.000000, 68.000000
10413, 44.000000, 448.000000, 68.000000
10414, 48.000000, 448.000000, 68.000000
10415, 52.000000, 448.000000, 68.000000
10416, 56.000000, 448.000000, 68.000000
10417, 60.000000, 448.000000, 68.000000
10418, 64.000000, 448.000000, 68.000000
10419, 68.000000, 448.000000, 68.000000
10420, 72.000000, 448.000000, 68.000000
10421, 36.000000, 452.000000, 68.000000
10422, 40.000000, 452.000000, 68.000000
10423, 44.000000, 452.000000, 68.000000
10424, 48.000000, 452.000000, 68.000000
10425, 52.000000, 452.000000, 68.000000
10426, 56.000000, 452.000000, 68.000000
10427, 60.000000, 452.000000, 68.000000
10428, 64.000000, 452.000000, 68.000000
10429, 68.000000, 452.000000, 68.000000
10430, 72.000000, 452.000000, 68.000000
10431, 36.000000, 456.000000, 68.000000
10432, 40.000000, 456.000000, 68.000000
10433, 44.000000, 456.000000, 68.000000
10434, 48.000000, 456.000000, 68.000000
10435, 52.000000, 456.000000, 68.000000
10436, 56.000000, 456.000000, 68.000000
10437, 60.000000, 456.000000, 68.000000
10438, 64.000000, 456.000000, 68.000000
10439, 68.000000, 456.000000, 68.000000
10440, 72.000000, 456.000000, 68.000000
10441, 36.000000, 228.000000, 72.000000
10442, 40.000000, 228.000000, 72.000000
10443, 44.000000, 228.000000, 72.000000
10444, 48.000000, 228.000000, 72.000000
10445, 52.000000, 228.000000, 72.000000
10446, 56.000000, 228.000000, 72.000000
10447, 60.000000, 228.000000, 72.000000
10448, 64.000000, 228.000000, 72.000000
10449, 68.000000, 228.000000, 72.000000
10450, 72.000000, 228.000000, 72.000000
10451, 36.000000, 232.000000, 72.000000
10452, 40.000000, 232.000000, 72.000000
10453, 44.000000, 232.000000, 72.000000
10454, 48.000000, 232.000000, 72.000000
10455, 52.000000, 232.000000, 72.000000
10456, 56.000000, 232.000000, 72.000000
10457, 60.000000, 232.000000, 72.000000
10458, 64.000000, 232.000000, 72.000000
10459, 68.000000, 232.000000, 72.000000
10460, 72.000000, 232.000000, 72.000000
10461, 36.000000, 236.000000, 72.000000
10462, 40.000000, 236.000000, 72.000000
10463, 44.000000, 236.000000, 72.000000
10464, 48.000000, 236.000000, 72.000000
10465, 52.000000, 236.000000, 72.000000
10466, 56.000000, 236.000000, 72.000000
10467, 60.000000, 236.000000, 72.000000
10468, 64.000000, 236.000000, 72.000000
10469, 68.000000, 236.000000, 72.000000
10470, 72.000000, 236.000000, 72.000000
10471, 36.000000, 240.000000, 72.000000
10472, 40.000000, 240.000000, 72.000000
10473, 44.000000, 240.000000, 72.000000
10474, 48.000000, 240.000000, 72.000000
10475, 52.000000, 240.000000, 72.000000
10476, 56.000000, 240.000000, 72.000000
10477, 60.000000, 240.000000, 72.000000
10478, 64.000000, 240.000000, 72.000000
10479, 68.000000, 240.000000, 72.000000
10480, 72.000000, 240.000000, 72.000000
10481, 36.000000, 244.000000, 72.000000
10482, 40.000000, 244.000000, 72.000000
10483, 44.000000, 244.000000, 72.000000
10484, 48.000000, 244.000000, 72.000000
10485, 52.000000, 244.000000, 72.000000
10486, 56.000000, 244.000000, 72.000000
10487, 60.000000, 244.000000, 72.000000
10488, 64.000000, 244.000000, 72.000000
10489, 68.000000, 244.000000, 72.000000
10490, 72.000000, 244.000000, 72.000000
10491, 36.000000, 248.000000, 72.000000
10492, 40.000000, 248.000000, 72.000000
10493, 44.000000, 248.000000, 72.000000
10494, 48.000000, 248.000000, 72.000000
10495, 52.000000, 248.000000, 72.000000
10496, 56.000000, 248.000000, 72.000000
10497, 60.000000, 248.000000, 72.000000
10498, 64.000000, 248.000000, 72.000000
10499, 68.000000, 248.000000, 72.000000
10500, 72.000000, 248.000000, 72.000000
10501, 36.000000, 252.000000, 72.000000
10502, 40.000000, 252.000000, 72.000000
10503, 44.000000, 252.000000, 72.000000
10504, 48.000000, 252.000000, 72.000000
10505, 52.000000, 252.000000, 72.000000
10506, 56.000000, 252.000000, 72.000000
10507, 60.000000, 252.000000, 72.000000
10508, 64.000000, 252.000000, 72.000000
10509, 68.000000, 252.000000, 72.000000
10510, 72.000000, 252.000000, 72.000000
10511, 36.000000, 256.000000, 72.000000
10512, 40.000000, 256.000000, 72.000000
10513, 44.000000, 256.000000, 72.000000
10514, 48.000000, 256.000000, 72.000000
10515, 52.000000, 256.000000, 72.000000
10516, 56.000000, 256.000000, 72.000000
10517, 60.000000, 256.000000, 72.000000
10518, 64.000000, 256.000000, 72.000000
10519, 68.000000, 256.000000, 72.000000
10520, 72.000000, 256.000000, 72.000000
10521, 36.000000, 260.000000, 72.000000
10522, 40.000000, 260.000000, 72.000000
10523, 44.000000, 260.000000, 72.000000
10524, 48.000000, 260.000000, 72.000000
10525, 52.000000, 260.000000, 72.000000
10526, 56.000000, 260.000000, 72.000000
10527, 60.000000, 260.000000, 72.000000
10528, 64.000000, 260.000000, 72.000000
10529, 68.000000, 260.000000, 72.000000
10530, 72.000000, 260.000000, 72.000000
10531, 36.000000, 264.000000, 72.000000
10532, 40.000000, 264.000000, 72.000000
10533, 44.000000, 264.000000, 72.000000
10534, 48.000000, 264.000000, 72.000000
10535, 52.000000, 264.000000, 72.000000
10536, 56.000000, 264.000000, 72.000000
10537, 60.000000, 264.000000, 72.000000
10538, 64.000000, 264.000000, 72.000000
10539, 68.000000, 264.000000, 72.000000
10540, 72.000000, 264.000000, 72.000000
10541, 36.000000, 268.000000, 72.000000
10542, 40.000000, 268.000000, 72.000000
10543, 44.000000, 268.000000, 72.000000
10544, 48.000000, 268.000000, 72.000000
10545, 52.000000, 268.000000, 72.000000
10546, 56.000000, 268.000000, 72.000000
10547, 60.000000, 268.000000, 72.000000
10548, 64.000000, 268.000000, 72.000000
10549, 68.000000, 268.000000, 72.000000
10550, 72.000000, 268.000000, 72.000000
10551, 36.000000, 272.000000, 72.000000
10552, 40.000000, 272.000000, 72.000000
10553, 44.000000, 272.000000, 72.000000
10554, 48.000000, 272.000000, 72.000000
10555, 52.000000, 272.000000, 72.000000
10556, 56.000000, 272.000000, 72.000000
10557, 60.000000, 272.000000, 72.000000
10558, 64.000000, 272.000000, 72.000000
10559, 68.000000, 272.000000, 72.000000
10560, 72.000000, 272.000000, 72.000000
10561, 36.000000, 276.000000, 72.000000
10562, 40.000000, 276.000000, 72.000000
10563, 44.000000, 276.000000, 72.000000
10564, 48.000000, 276.000000, 72.000000
10565, 52.000000, 276.000000, 72.000000
10566, 56.000000, 276.000000, 72.000000
10567, 60.000000, 276.000000, 72.000000
10568, 64.000000, 276.000000, 72.000000
10569, 68.000000, 276.000000, 72.000000
10570, 72.000000, 276.000000, 72.000000
10571, 36.000000, 280.000000, 72.000000
10572, 40.000000, 280.000000, 72.000000
10573, 44.000000, 280.000000, 72.000000
10574, 48.000000, 280.000000, 72.000000
10575, 52.000000, 280.000000, 72.000000
10576, 56.000000, 280.000000, 72.000000
10577, 60.000000, 280.000000, 72.000000
10578, 64.000000, 280.000000, 72.000000
10579, 68.000000, 280.000000, 72.000000
10580, 72.000000, 280.000000, 72.000000
10581, 36.000000, 284.000000, 72.000000
10582, 40.000000, 284.000000, 72.000000
10583, 44.000000, 284.000000, 72.000000
10584, 48.000000, 284.000000, 72.000000
10585, 52.000000, 284.000000, 72.000000
10586, 56.000000, 284.000000, 72.000000
10587, 60.000000, 284.000000, 72.000000
10588, 64.000000, 284.000000, 72.000000
10589, 68.000000, 284.000000, 72.000000
10590, 72.000000, 284.000000, 72.000000
10591, 36.000000, 288.000000, 72.000000
10592, 40.000000, 288.000000, 72.000000
10593, 44.000000, 288.000000, 72.000000
10594, 48.000000, 288.000000, 72.000000
10595, 52.000000, 288.000000, 72.000000
10596, 56.000000, 288.000000, 72.000000
10597, 60.000000, 288.000000, 72.000000
10598, 64.000000, 288.000000, 72.000000
10599, 68.000000, 288.000000, 72.000000
10600, 72.000000, 288.000000, 72.000000
10601, 36.000000, 292.000000, 72.000000
10602, 40.000000, 292.000000, 72.000000
10603, 44.000000, 292.000000, 72.000000
10604, 48.000000, 292.000000, 72.000000
10605, 52.000000, 292.000000, 72.000000
10606, 56.000000, 292.000000, 72.000000
10607, 60.000000, 292.000000, 72.000000
10608, 64.000000, 292.000000, 72.000000
10609, 68.000000, 292.000000, 72.000000
10610, 72.000000, 292.000000, 72.000000
10611, 36.000000, 296.000000, 72.000000
10612, 40.000000, 296.000000, 72.000000
10613, 44.000000, 296.000000, 72.000000
10614, 48.000000, 296.000000, 72.000000
10615, 52.000000, 296.000000, 72.000000
10616, 56.000000, 296.000000, 72.000000
10617, 60.000000, 296.000000, 72.000000
10618, 64.000000, 296.000000, 72.000000
10619, 68.000000, 296.000000, 72.000000
10620, 72.000000, 296.000000, 72.000000
10621, 36.000000, 300.000000, 72.000000
10622, 40.000000, 300.000000, 72.000000
10623, 44.000000, 300.000000, 72.000000
10624, 48.000000, 300.000000, 72.000000
10625, 52.000000, 300.000000, 72.000000
10626, 56.000000, 300.000000, 72.000000
10627, 60.000000, 300.000000, 72.000000
10628, 64.000000, 300.000000, 72.000000
10629, 68.000000, 300.000000, 72.000000
10630, 72.000000, 300.000000, 72.000000
10631, 36.000000, 304.000000, 72.000000
10632, 40.000000, 304.000000, 72.000000
10633, 44.000000, 304.000000, 72.000000
10634, 48.000000, 304.000000, 72.000000
10635, 52.000000, 304.000000, 72.000000
10636, 56.000000, 304.000000, 72.000000
10637, 60.000000, 304.000000, 72.000000
10638, 64.000000, 304.000000, 72.000000
10639, 68.000000, 304.000000, 72.000000
10640, 72.000000, 304.000000, 72.000000
10641, 36.000000, 308.000000, 72.000000
10642, 40.000000, 308.000000, 72.000000
10643, 44.000000, 308.000000, 72.000000
10644, 48.000000, 308.000000, 72.000000
10645, 52.000000, 308.000000, 72.000000
10646, 56.000000, 308.000000, 72.000000
10647, 60.000000, 308.000000, 72.000000
10648, 64.000000, 308.000000, 72.000000
10649, 68.000000, 308.000000, 72.000000
10650, 72.000000, 308.000000, 72.000000
10651, 36.000000, 312.000000, 72.000000
10652, 40.000000, 312.000000, 72.000000
10653, 44.000000, 312.000000, 72.000000
10654, 48.000000, 312.000000, 72.000000
10655, 52.000000, 312.000000, 72.000000
10656, 56.000000, 312.000000, 72.000000
10657, 60.000000, 312.000000, 72.000000
10658, 64.000000, 312.000000, 72.000000
10659, 68.000000, 312.000000, 72.000000
10660, 72.000000, 312.000000, 72.000000
10661, 36.000000, 316.000000, 72.000000
10662, 40.000000, 316.000000, 72.000000
10663, 44.000000, 316.000000, 72.000000
10664, 48.000000, 316.000000, 72.000000
10665, 52.000000, 316.000000, 72.000000
10666, 56.000000, 316.000000, 72.000000
10667, 60.000000, 316.000000, 72.000000
10668, 64.000000, 316.000000, 72.000000
10669, 68.000000, 316.000000, 72.000000
10670, 72.000000, 316.000000, 72.000000
10671, 36.000000, 320.000000, 72.000000
10672, 40.000000, 320.000000, 72.000000
10673, 44.000000, 320.000000, 72.000000
10674, 48.000000, 320.000000, 72.000000
10675, 52.000000, 320.000000, 72.000000
10676, 56.000000, 320.000000, 72.000000
10677, 60.000000, 320.000000, 72.000000
10678, 64.000000, 320.000000, 72.000000
10679, 68.000000, 320.000000, 72.000000
10680, 72.000000, 320.000000, 72.000000
10681, 36.000000, 324.000000, 72.000000
10682, 40.000000, 324.000000, 72.000000
10683, 44.000000, 324.000000, 72.000000
10684, 48.000000, 324.000000, 72.000000
10685, 52.000000, 324.000000, 72.000000
10686, 56.000000, 324.000000, 72.000000
10687, 60.000000, 324.000000, 72.000000
10688, 64.000000, 324.000000, 72.000000
10689, 68.000000, 324.000000, 72.000000
10690, 72.000000, 324.000000, 72.000000
10691, 36.000000, 328.000000, 72.000000
10692, 40.000000, 328.000000, 72.000000
10693, 44.000000, 328.000000, 72.000000
10694, 48.000000, 328.000000, 72.000000
10695, 52.000000, 328.000000, 72.000000
10696, 56.000000, 328.000000, 72.000000
10697, 60.000000, 328.000000, 72.000000
10698, 64.000000, 328.000000, 72.000000
10699, 68.000000, 328.000000, 72.000000
10700, 72.000000, 328.000000, 72.000000
10701, 36.000000, 332.000000, 72.000000
10702, 40.000000, 332.000000, 72.000000
10703, 44.000000, 332.000000, 72.000000
10704, 48.000000, 332.000000, 72.000000
10705, 52.000000, 332.000000, 72.000000
10706, 56.000000, 332.000000, 72.000000
10707, 60.000000, 332.000000, 72.000000
10708, 64.000000, 332.000000, 72.000000
10709, 68.000000, 332.000000, 72.000000
10710, 72.000000, 332.000000, 72.000000
10711, 36.000000, 336.000000, 72.000000
10712, 40.000000, 336.000000, 72.000000
10713, 44.000000, 336.000000, 72.000000
10714, 48.000000, 336.000000, 72.000000
10715, 52.000000, 336.000000, 72.000000
10716, 56.000000, 336.000000, 72.000000
10717, 60.000000, 336.000000, 72.000000
10718, 64.000000, 336.000000, 72.000000
10719, 68.000000, 336.000000, 72.000000
10720, 72.000000, 336.000000, 72.000000
10721, 36.000000, 340.000000, 72.000000
10722, 40.000000, 340.000000, 72.000000
10723, 44.000000, 340.000000, 72.000000
10724, 48.000000, 340.000000, 72.000000
10725, 52.000000, 340.000000, 72.000000
10726, 56.000000, 340.000000, 72.000000
10727, 60.000000, 340.000000, 72.000000
10728, 64.000000, 340.000000, 72.000000
10729, 68.000000, 340.000000, 72.000000
10730, 72.000000, 340.000000, 72.000000
10731, 36.000000, 344.000000, 72.000000
10732, 40.000000, 344.000000, 72.000000
10733, 44.000000, 344.000000, 72.000000
10734, 48.000000, 344.000000, 72.000000
10735, 52.000000, 344.000000, 72.000000
10736, 56.000000, 344.000000, 72.000000
10737, 60.000000, 344.000000, 72.000000
10738, 64.000000, 344.000000, 72.000000
10739, 68.000000, 344.000000, 72.000000
10740, 72.000000, 344.000000, 72.000000
10741, 36.000000, 348.000000, 72.000000
10742, 40.000000, 348.000000, 72.000000
10743, 44.000000, 348.000000, 72.000000
10744, 48.000000, 348.000000, 72.000000
10745, 52.000000, 348.000000, 72.000000
10746, 56.000000, 348.000000, 72.000000
10747, 60.000000, 348.000000, 72.000000
10748, 64.000000, 348.000000, 72.000000
10749, 68.000000, 348.000000, 72.000000
10750, 72.000000, 348.000000, 72.000000
10751, 36.000000, 352.000000, 72.000000
10752, 40.000000, 352.000000, 72.000000
10753, 44.000000, 352.000000, 72.000000
10754, 48.000000, 352.000000, 72.000000
10755, 52.000000, 352.000000, 72.000000
10756, 56.000000, 352.000000, 72.000000
10757, 60.000000, 352.000000, 72.000000
10758, 64.000000, 352.000000, 72.000000
10759, 68.000000, 352.000000, 72.000000
10760, 72.000000, 352.000000, 72.000000
10761, 36.000000, 356.000000, 72.000000
10762, 40.000000, 356.000000, 72.000000
10763, 44.000000, 356.000000, 72.000000
10764, 48.000000, 356.000000, 72.000000
10765, 52.000000, 356.000000, 72.000000
10766, 56.000000, 356.000000, 72.000000
10767, 60.000000, 356.000000, 72.000000
10768, 64.000000, 356.000000, 72.000000
10769, 68.000000, 356.000000, 72.000000
10770, 72.000000, 356.000000, 72.000000
10771, 36.000000, 360.000000, 72.000000
10772, 40.000000, 360.000000, 72.000000
10773, 44.000000, 360.000000, 72.000000
10774, 48.000000, 360.000000, 72.000000
10775, 52.000000, 360.000000, 72.000000
10776, 56.000000, 360.000000, 72.000000
10777, 60.000000, 360.000000, 72.000000
10778, 64.000000, 360.000000, 72.000000
10779, 68.000000, 360.000000, 72.000000
10780, 72.000000, 360.000000, 72.000000
10781, 36.000000, 364.000000, 72.000000
10782, 40.000000, 364.000000, 72.000000
10783, 44.000000, 364.000000, 72.000000
10784, 48.000000, 364.000000, 72.000000
10785, 52.000000, 364.000000, 72.000000
10786, 56.000000, 364.000000, 72.000000
10787, 60.000000, 364.000000, 72.000000
10788, 64.000000, 364.000000, 72.000000
10789, 68.000000, 364.000000, 72.000000
10790, 72.000000, 364.000000, 72.000000
10791, 36.000000, 368.000000, 72.000000
10792, 40.000000, 368.000000, 72.000000
10793, 44.000000, 368.000000, 72.000000
10794, 48.000000, 368.000000, 72.000000
10795, 52.000000, 368.000000, 72.000000
10796, 56.000000, 368.000000, 72.000000
10797, 60.000000, 368.000000, 72.000000
10798, 64.000000, 368.000000, 72.000000
10799, 68.000000, 368.000000, 72.000000
10800, 72.000000, 368.000000, 72.000000
10801, 36.000000, 372.000000, 72.000000
10802, 40.000000, 372.000000, 72.000000
10803, 44.000000, 372.000000, 72.000000
10804, 48.000000, 372.000000, 72.000000
10805, 52.000000, 372.000000, 72.000000
10806, 56.000000, 372.000000, 72.000000
10807, 60.000000, 372.000000, 72.000000
10808, 64.000000, 372.000000, 72.000000
10809, 68.000000, 372.000000, 72.000000
10810, 72.000000, 372.000000, 72.000000
10811, 36.000000, 376.000000, 72.000000
10812, 40.000000, 376.000000, 72.000000
10813, 44.000000, 376.000000, 72.000000
10814, 48.000000, 376.000000, 72.000000
10815, 52.000000, 376.000000, 72.000000
10816, 56.000000, 376.000000, 72.000000
10817, 60.000000, 376.000000, 72.000000
10818, 64.000000, 376.000000, 72.000000
10819, 68.000000, 376.000000, 72.000000
10820, 72.000000, 376.000000, 72.000000
10821, 36.000000, 380.000000, 72.000000
10822, 40.000000, 380.000000, 72.000000
10823, 44.000000, 380.000000, 72.000000
10824, 48.000000, 380.000000, 72.000000
10825, 52.000000, 380.000000, 72.000000
10826, 56.000000, 380.000000, 72.000000
10827, 60.000000, 380.000000, 72.000000
10828, 64.000000, 380.000000, 72.000000
10829, 68.000000, 380.000000, 72.000000
10830, 72.000000, 380.000000, 72.000000
10831, 36.000000, 384.000000, 72.000000
10832, 40.000000, 384.000000, 72.000000
10833, 44.000000, 384.000000, 72.000000
10834, 48.000000, 384.000000, 72.000000
10835, 52.000000, 384.000000, 72.000000
10836, 56.000000, 384.000000, 72.000000
10837, 60.000000, 384.000000, 72.000000
10838, 64.000000, 384.000000, 72.000000
10839, 68.000000, 384.000000, 72.000000
10840, 72.000000, 384.000000, 72.000000
10841, 36.000000, 388.000000, 72.000000
10842, 40.000000, 388.000000, 72.000000
10843, 44.000000, 388.000000, 72.000000
10844, 48.000000, 388.000000, 72.000000
10845, 52.000000, 388.000000, 72.000000
10846, 56.000000, 388.000000, 72.000000
10847, 60.000000, 388.000000, 72.000000
10848, 64.000000, 388.000000, 72.000000
10849, 68.000000, 388.000000, 72.000000
10850, 72.000000, 388.000000, 72.000000
10851, 36.000000, 392.000000, 72.000000
10852, 40.000000, 392.000000, 72.000000
10853, 44.000000, 392.000000, 72.000000
10854, 48.000000, 392.000000, 72.000000
10855, 52.000000, 392.000000, 72.000000
10856, 56.000000, 392.000000, 72.000000
10857, 60.000000, 392.000000, 72.000000
10858, 64.000000, 392.000000, 72.000000
10859, 68.000000, 392.000000, 72.000000
10860, 72.000000, 392.000000, 72.000000
10861, 36.000000, 396.000000, 72.000000
10862, 40.000000, 396.000000, 72.000000
10863, 44.000000, 396.000000, 72.000000
10864, 48.000000, 396.000000, 72.000000
10865, 52.000000, 396.000000, 72.000000
10866, 56.000000, 396.000000, 72.000000
10867, 60.000000, 396.000000, 72.000000
10868, 64.000000, 396.000000, 72.000000
10869, 68.000000, 396.000000, 72.000000
10870, 72.000000, 396.000000, 72.000000
10871, 36.000000, 400.000000, 72.000000
10872, 40.000000, 400.000000, 72.000000
10873, 44.000000, 400.000000, 72.000000
10874, 48.000000, 400.000000, 72.000000
10875, 52.000000, 400.000000, 72.000000
10876, 56.000000, 400.000000, 72.000000
10877, 60.000000, 400.000000, 72.000000
10878, 64.000000, 400.000000, 72.000000
10879, 68.000000, 400.000000, 72.000000
10880, 72.000000, 400.000000, 72.000000
10881, 36.000000, 404.000000, 72.000000
10882, 40.000000, 404.000000, 72.000000
10883, 44.000000, 404.000000, 72.000000
10884, 48.000000, 404.000000, 72.000000
10885, 52.000000, 404.000000, 72.000000
10886, 56.000000, 404.000000, 72.000000
10887, 60.000000, 404.000000, 72.000000
10888, 64.000000, 404.000000, 72.000000
10889, 68.000000, 404.000000, 72.000000
10890, 72.000000, 404.000000, 72.000000
10891, 36.000000, 408.000000, 72.000000
10892, 40.000000, 408.000000, 72.000000
10893, 44.000000, 408.000000, 72.000000
10894, 48.000000, 408.000000, 72.000000
10895, 52.000000, 408.000000, 72.000000
10896, 56.000000, 408.000000, 72.000000
10897, 60.000000, 408.000000, 72.000000
10898, 64.000000, 408.000000, 72.000000
10899, 68.000000, 408.000000, 72.000000
10900, 72.000000, 408.000000, 72.000000
10901, 36.000000, 412.000000, 72.000000
10902, 40.000000, 412.000000, 72.000000
10903, 44.000000, 412.000000, 72.000000
10904, 48.000000, 412.000000, 72.000000
10905, 52.000000, 412.000000, 72.000000
10906, 56.000000, 412.000000, 72.000000
10907, 60.000000, 412.000000, 72.000000
10908, 64.000000, 412.000000, 72.000000
10909, 68.000000, 412.000000, 72.000000
10910, 72.000000, 412.000000, 72.000000
10911, 36.000000, 416.000000, 72.000000
10912, 40.000000, 416.000000, 72.000000
10913, 44.000000, 416.000000, 72.000000
10914, 48.000000, 416.000000, 72.000000
10915, 52.000000, 416.000000, 72.000000
10916, 56.000000, 416.000000, 72.000000
10917, 60.000000, 416.000000, 72.000000
10918, 64.000000, 416.000000, 72.000000
10919, 68.000000, 416.000000, 72.000000
10920, 72.000000, 416.000000, 72.000000
10921, 36.000000, 420.000000, 72.000000
10922, 40.000000, 420.000000, 72.000000
10923, 44.000000, 420.000000, 72.000000
10924, 48.000000, 420.000000, 72.000000
10925, 52.000000, 420.000000, 72.000000
10926, 56.000000, 420.000000, 72.000000
10927, 60.000000, 420.000000, 72.000000
10928, 64.000000, 420.000000, 72.000000
10929, 68.000000, 420.000000, 72.000000
10930, 72.000000, 420.000000, 72.000000
10931, 36.000000, 424.000000, 72.000000
10932, 40.000000, 424.000000, 72.000000
10933, 44.000000, 424.000000, 72.000000
10934, 48.000000, 424.000000, 72.000000
10935, 52.000000, 424.000000, 72.000000
10936, 56.000000, 424.000000, 72.000000
10937, 60.000000, 424.000000, 72.000000
10938, 64.000000, 424.000000, 72.000000
10939, 68.000000, 424.000000, 72.000000
10940, 72.000000, 424.000000, 72.000000
10941, 36.000000, 428.000000, 72.000000
10942, 40.000000, 428.000000, 72.000000
10943, 44.000000, 428.000000, 72.000000
10944, 48.000000, 428.000000, 72.000000
10945, 52.000000, 428.000000, 72.000000
10946, 56.000000, 428.000000, 72.000000
10947, 60.000000, 428.000000, 72.000000
10948, 64.000000, 428.000000, 72.000000
10949, 68.000000, 428.000000, 72.000000
10950, 72.000000, 428.000000, 72.000000
10951, 36.000000, 432.000000, 72.000000
10952, 40.000000, 432.000000, 72.000000
10953, 44.000000, 432.000000, 72.000000
10954, 48.000000, 432.000000, 72.000000
10955, 52.000000, 432.000000, 72.000000
10956, 56.000000, 432.000000, 72.000000
10957, 60.000000, 432.000000, 72.000000
10958, 64.000000, 432.000000, 72.000000
10959, 68.000000, 432.000000, 72.000000
10960, 72.000000, 432.000000, 72.000000
10961, 36.000000, 436.000000, 72.000000
10962, 40.000000, 436.000000, 72.000000
10963, 44.000000, 436.000000, 72.000000
10964, 48.000000, 436.000000, 72.000000
10965, 52.000000, 436.000000, 72.000000
10966, 56.000000, 436.000000, 72.000000
10967, 60.000000, 436.000000, 72.000000
10968, 64.000000, 436.000000, 72.000000
10969, 68.000000, 436.000000, 72.000000
10970, 72.000000, 436.000000, 72.000000
10971, 36.000000, 440.000000, 72.000000
10972, 40.000000, 440.000000, 72.000000
10973, 44.000000, 440.000000, 72.000000
10974, 48.000000, 440.000000, 72.000000
10975, 52.000000, 440.000000, 72.000000
10976, 56.000000, 440.000000, 72.000000
10977, 60.000000, 440.000000, 72.000000
10978, 64.000000, 440.000000, 72.000000
10979, 68.000000, 440.000000, 72.000000
10980, 72.000000, 440.000000, 72.000000
10981, 36.000000, 444.000000, 72.000000
10982, 40.000000, 444.000000, 72.000000
10983, 44.000000, 444.000000, 72.000000
10984, 48.000000, 444.000000, 72.000000
10985, 52.000000, 444.000000, 72.000000
10986, 56.000000, 444.000000, 72.000000
10987, 60.000000, 444.000000, 72.000000
10988, 64.000000, 444.000000, 72.000000
10989, 68.000000, 444.000000, 72.000000
10990, 72.000000, 444.000000, 72.000000
10991, 36.000000, 448.000000, 72.000000
10992, 40.000000, 448.000000, 72.000000
10993, 44.000000, 448.000000, 72.000000
10994, 48.000000, 448.000000, 72.000000
10995, 52.000000, 448.000000, 72.000000
10996, 56.000000, 448.000000, 72.000000
10997, 60.000000, 448.000000, 72.000000
10998, 64.000000, 448.000000, 72.000000
10999, 68.000000, 448.000000, 72.000000
11000, 72.000000, 448.000000, 72.000000
11001, 36.000000, 452.000000, 72.000000
11002, 40.000000, 452.000000, 72.000000
11003, 44.000000, 452.000000, 72.000000
11004, 48.000000, 452.000000, 72.000000
11005, 52.000000, 452.000000, 72.000000
11006, 56.000000, 452.000000, 72.000000
11007, 60.000000, 452.000000, 72.000000
11008, 64.000000, 452.000000, 72.000000
11009, 68.000000, 452.000000, 72.000000
11010, 72.000000, 452.000000, 72.000000
11011, 36.000000, 456.000000, 72.000000
11012, 40.000000, 456.000000, 72.000000
11013, 44.000000, 456.000000, 72.000000
11014, 48.000000, 456.000000, 72.000000
11015, 52.000000, 456.000000, 72.000000
11016, 56.000000, 456.000000, 72.000000
11017, 60.000000, 456.000000, 72.000000
11018, 64.000000, 456.000000, 72.000000
11019, 68.000000, 456.000000, 72.000000
11020, 72.000000, 456.000000, 72.000000
11021, 36.000000, 228.000000, 76.000000
11022, 40.000000, 228.000000, 76.000000
11023, 44.000000, 228.000000, 76.000000
11024, 48.000000, 228.000000, 76.000000
11025, 52.000000, 228.000000, 76.000000
11026, 56.000000, 228.000000, 76.000000
11027, 60.000000, 228.000000, 76.000000
11028, 64.000000, 228.000000, 76.000000
11029, 68.000000, 228.000000, 76.000000
11030, 72.000000, 228.000000, 76.000000
11031, 36.000000, 232.000000, 76.000000
11032, 40.000000, 232.000000, 76.000000
11033, 44.000000, 232.000000, 76.000000
11034, 48.000000, 232.000000, 76.000000
11035, 52.000000, 232.000000, 76.000000
11036, 56.000000, 232.000000, 76.000000
11037, 60.000000, 232.000000, 76.000000
11038, 64.000000, 232.000000, 76.000000
11039, 68.000000, 232.000000, 76.000000
11040, 72.000000, 232.000000, 76.000000
11041, 36.000000, 236.000000, 76.000000
11042, 40.000000, 236.000000, 76.000000
11043, 44.000000, 236.000000, 76.000000
11044, 48.000000, 236.000000, 76.000000
11045, 52.000000, 236.000000, 76.000000
11046, 56.000000, 236.000000, 76.000000
11047, 60.000000, 236.000000, 76.000000
11048, 64.000000, 236.000000, 76.000000
11049, 68.000000, 236.000000, 76.000000
11050, 72.000000, 236.000000, 76.000000
11051, 36.000000, 240.000000, 76.000000
11052, 40.000000, 240.000000, 76.000000
11053, 44.000000, 240.000000, 76.000000
11054, 48.000000, 240.000000, 76.000000
11055, 52.000000, 240.000000, 76.000000
11056, 56.000000, 240.000000, 76.000000
11057, 60.000000, 240.000000, 76.000000
11058, 64.000000, 240.000000, 76.000000
11059, 68.000000, 240.000000, 76.000000
11060, 72.000000, 240.000000, 76.000000
11061, 36.000000, 244.000000, 76.000000
11062, 40.000000, 244.000000, 76.000000
11063, 44.000000, 244.000000, 76.000000
11064, 48.000000, 244.000000, 76.000000
11065, 52.000000, 244.000000, 76.000000
11066, 56.000000, 244.000000, 76.000000
11067, 60.000000, 244.000000, 76.000000
11068, 64.000000, 244.000000, 76.000000
11069, 68.000000, 244.000000, 76.000000
11070, 72.000000, 244.000000, 76.000000
11071, 36.000000, 248.000000, 76.000000
11072, 40.000000, 248.000000, 76.000000
11073, 44.000000, 248.000000, 76.000000
11074, 48.000000, 248.000000, 76.000000
11075, 52.000000, 248.000000, 76.000000
11076, 56.000000, 248.000000, 76.000000
11077, 60.000000, 248.000000, 76.000000
11078, 64.000000, 248.000000, 76.000000
11079, 68.000000, 248.000000, 76.000000
11080, 72.000000, 248.000000, 76.000000
11081, 36.000000, 252.000000, 76.000000
11082, 40.000000, 252.000000, 76.000000
11083, 44.000000, 252.000000, 76.000000
11084, 48.000000, 252.000000, 76.000000
11085, 52.000000, 252.000000, 76.000000
11086, 56.000000, 252.000000, 76.000000
11087, 60.000000, 252.000000, 76.000000
11088, 64.000000, 252.000000, 76.000000
11089, 68.000000, 252.000000, 76.000000
11090, 72.000000, 252.000000, 76.000000
11091, 36.000000, 256.000000, 76.000000
11092, 40.000000, 256.000000, 76.000000
11093, 44.000000, 256.000000, 76.000000
11094, 48.000000, 256.000000, 76.000000
11095, 52.000000, 256.000000, 76.000000
11096, 56.000000, 256.000000, 76.000000
11097, 60.000000, 256.000000, 76.000000
11098, 64.000000, 256.000000, 76.000000
11099, 68.000000, 256.000000, 76.000000
11100, 72.000000, 256.000000, 76.000000
11101, 36.000000, 260.000000, 76.000000
11102, 40.000000, 260.000000, 76.000000
11103, 44.000000, 260.000000, 76.000000
11104, 48.000000, 260.000000, 76.000000
11105, 52.000000, 260.000000, 76.000000
11106, 56.000000, 260.000000, 76.000000
11107, 60.000000, 260.000000, 76.000000
11108, 64.000000, 260.000000, 76.000000
11109, 68.000000, 260.000000, 76.000000
11110, 72.000000, 260.000000, 76.000000
11111, 36.000000, 264.000000, 76.000000
11112, 40.000000, 264.000000, 76.000000
11113, 44.000000, 264.000000, 76.000000
11114, 48.000000, 264.000000, 76.000000
11115, 52.000000, 264.000000, 76.000000
11116, 56.000000, 264.000000, 76.000000
11117, 60.000000, 264.000000, 76.000000
11118, 64.000000, 264.000000, 76.000000
11119, 68.000000, 264.000000, 76.000000
11120, 72.000000, 264.000000, 76.000000
11121, 36.000000, 268.000000, 76.000000
11122, 40.000000, 268.000000, 76.000000
11123, 44.000000, 268.000000, 76.000000
11124, 48.000000, 268.000000, 76.000000
11125, 52.000000, 268.000000, 76.000000
11126, 56.000000, 268.000000, 76.000000
11127, 60.000000, 268.000000, 76.000000
11128, 64.000000, 268.000000, 76.000000
11129, 68.000000, 268.000000, 76.000000
11130, 72.000000, 268.000000, 76.000000
11131, 36.000000, 272.000000, 76.000000
11132, 40.000000, 272.000000, 76.000000
11133, 44.000000, 272.000000, 76.000000
11134, 48.000000, 272.000000, 76.000000
11135, 52.000000, 272.000000, 76.000000
11136, 56.000000, 272.000000, 76.000000
11137, 60.000000, 272.000000, 76.000000
11138, 64.000000, 272.000000, 76.000000
11139, 68.000000, 272.000000, 76.000000
11140, 72.000000, 272.000000, 76.000000
11141, 36.000000, 276.000000, 76.000000
11142, 40.000000, 276.000000, 76.000000
11143, 44.000000, 276.000000, 76.000000
11144, 48.000000, 276.000000, 76.000000
11145, 52.000000, 276.000000, 76.000000
11146, 56.000000, 276.000000, 76.000000
11147, 60.000000, 276.000000, 76.000000
11148, 64.000000, 276.000000, 76.000000
11149, 68.000000, 276.000000, 76.000000
11150, 72.000000, 276.000000, 76.000000
11151, 36.000000, 280.000000, 76.000000
11152, 40.000000, 280.000000, 76.000000
11153, 44.000000, 280.000000, 76.000000
11154, 48.000000, 280.000000, 76.000000
11155, 52.000000, 280.000000, 76.000000
11156, 56.000000, 280.000000, 76.000000
11157, 60.000000, 280.000000, 76.000000
11158, 64.000000, 280.000000, 76.000000
11159, 68.000000, 280.000000, 76.000000
11160, 72.000000, 280.000000, 76.000000
11161, 36.000000, 284.000000, 76.000000
11162, 40.000000, 284.000000, 76.000000
11163, 44.000000, 284.000000, 76.000000
11164, 48.000000, 284.000000, 76.000000
11165, 52.000000, 284.000000, 76.000000
11166, 56.000000, 284.000000, 76.000000
11167, 60.000000, 284.000000, 76.000000
11168, 64.000000, 284.000000, 76.000000
11169, 68.000000, 284.000000, 76.000000
11170, 72.000000, 284.000000, 76.000000
11171, 36.000000, 288.000000, 76.000000
11172, 40.000000, 288.000000, 76.000000
11173, 44.000000, 288.000000, 76.000000
11174, 48.000000, 288.000000, 76.000000
11175, 52.000000, 288.000000, 76.000000
11176, 56.000000, 288.000000, 76.000000
11177, 60.000000, 288.000000, 76.000000
11178, 64.000000, 288.000000, 76.000000
11179, 68.000000, 288.000000, 76.000000
11180, 72.000000, 288.000000, 76.000000
11181, 36.000000, 292.000000, 76.000000
11182, 40.000000, 292.000000, 76.000000
11183, 44.000000, 292.000000, 76.000000
11184, 48.000000, 292.000000, 76.000000
11185, 52.000000, 292.000000, 76.000000
11186, 56.000000, 292.000000, 76.000000
11187, 60.000000, 292.000000, 76.000000
11188, 64.000000, 292.000000, 76.000000
11189, 68.000000, 292.000000, 76.000000
11190, 72.000000, 292.000000, 76.000000
11191, 36.000000, 296.000000, 76.000000
11192, 40.000000, 296.000000, 76.000000
11193, 44.000000, 296.000000, 76.000000
11194, 48.000000, 296.000000, 76.000000
11195, 52.000000, 296.000000, 76.000000
11196, 56.000000, 296.000000, 76.000000
11197, 60.000000, 296.000000, 76.000000
11198, 64.000000, 296.000000, 76.000000
11199, 68.000000, 296.000000, 76.000000
11200, 72.000000, 296.000000, 76.000000
11201, 36.000000, 300.000000, 76.000000
11202, 40.000000, 300.000000, 76.000000
11203, 44.000000, 300.000000, 76.000000
11204, 48.000000, 300.000000, 76.000000
11205, 52.000000, 300.000000, 76.000000
11206, 56.000000, 300.000000, 76.000000
11207, 60.000000, 300.000000, 76.000000
11208, 64.000000, 300.000000, 76.000000
11209, 68.000000, 300.000000, 76.000000
11210, 72.000000, 300.000000, 76.000000
11211, 36.000000, 304.000000, 76.000000
11212, 40.000000, 304.000000, 76.000000
11213, 44.000000, 304.000000, 76.000000
11214, 48.000000, 304.000000, 76.000000
11215, 52.000000, 304.000000, 76.000000
11216, 56.000000, 304.000000, 76.000000
11217, 60.000000, 304.000000, 76.000000
11218, 64.000000, 304.000000, 76.000000
11219, 68.000000, 304.000000, 76.000000
11220, 72.000000, 304.000000, 76.000000
11221, 36.000000, 308.000000, 76.000000
11222, 40.000000, 308.000000, 76.000000
11223, 44.000000, 308.000000, 76.000000
11224, 48.000000, 308.000000, 76.000000
11225, 52.000000, 308.000000, 76.000000
11226, 56.000000, 308.000000, 76.000000
11227, 60.000000, 308.000000, 76.000000
11228, 64.000000, 308.000000, 76.000000
11229, 68.000000, 308.000000, 76.000000
11230, 72.000000, 308.000000, 76.000000
11231, 36.000000, 312.000000, 76.000000
11232, 40.000000, 312.000000, 76.000000
11233, 44.000000, 312.000000, 76.000000
11234, 48.000000, 312.000000, 76.000000
11235, 52.000000, 312.000000, 76.000000
11236, 56.000000, 312.000000, 76.000000
11237, 60.000000, 312.000000, 76.000000
11238, 64.000000, 312.000000, 76.000000
11239, 68.000000, 312.000000, 76.000000
11240, 72.000000, 312.000000, 76.000000
11241, 36.000000, 316.000000, 76.000000
11242, 40.000000, 316.000000, 76.000000
11243, 44.000000, 316.000000, 76.000000
11244, 48.000000, 316.000000, 76.000000
11245, 52.000000, 316.000000, 76.000000
11246, 56.000000, 316.000000, 76.000000
11247, 60.000000, 316.000000, 76.000000
11248, 64.000000, 316.000000, 76.000000
11249, 68.000000, 316.000000, 76.000000
11250, 72.000000, 316.000000, 76.000000
11251, 36.000000, 320.000000, 76.000000
11252, 40.000000, 320.000000, 76.000000
11253, 44.000000, 320.000000, 76.000000
11254, 48.000000, 320.000000, 76.000000
11255, 52.000000, 320.000000, 76.000000
11256, 56.000000, 320.000000, 76.000000
11257, 60.000000, 320.000000, 76.000000
11258, 64.000000, 320.000000, 76.000000
11259, 68.000000, 320.000000, 76.000000
11260, 72.000000, 320.000000, 76.000000
11261, 36.000000, 324.000000, 76.000000
11262, 40.000000, 324.000000, 76.000000
11263, 44.000000, 324.000000, 76.000000
11264, 48.000000, 324.000000, 76.000000
11265, 52.000000, 324.000000, 76.000000
11266, 56.000000, 324.000000, 76.000000
11267, 60.000000, 324.000000, 76.000000
11268, 64.000000, 324.000000, 76.000000
11269, 68.000000, 324.000000, 76.000000
11270, 72.000000, 324.000000, 76.000000
11271, 36.000000, 328.000000, 76.000000
11272, 40.000000, 328.000000, 76.000000
11273, 44.000000, 328.000000, 76.000000
11274, 48.000000, 328.000000, 76.000000
11275, 52.000000, 328.000000, 76.000000
11276, 56.000000, 328.000000, 76.000000
11277, 60.000000, 328.000000, 76.000000
11278, 64.000000, 328.000000, 76.000000
11279, 68.000000, 328.000000, 76.000000
11280, 72.000000, 328.000000, 76.000000
11281, 36.000000, 332.000000, 76.000000
11282, 40.000000, 332.000000, 76.000000
11283, 44.000000, 332.000000, 76.000000
11284, 48.000000, 332.000000, 76.000000
11285, 52.000000, 332.000000, 76.000000
11286, 56.000000, 332.000000, 76.000000
11287, 60.000000, 332.000000, 76.000000
11288, 64.000000, 332.000000, 76.000000
11289, 68.000000, 332.000000, 76.000000
11290, 72.000000, 332.000000, 76.000000
11291, 36.000000, 336.000000, 76.000000
11292, 40.000000, 336.000000, 76.000000
11293, 44.000000, 336.000000, 76.000000
11294, 48.000000, 336.000000, 76.000000
11295, 52.000000, 336.000000, 76.000000
11296, 56.000000, 336.000000, 76.000000
11297, 60.000000, 336.000000, 76.000000
11298, 64.000000, 336.000000, 76.000000
11299, 68.000000, 336.000000, 76.000000
11300, 72.000000, 336.000000, 76.000000
11301, 36.000000, 340.000000, 76.000000
11302, 40.000000, 340.000000, 76.000000
11303, 44.000000, 340.000000, 76.000000
11304, 48.000000, 340.000000, 76.000000
11305, 52.000000, 340.000000, 76.000000
11306, 56.000000, 340.000000, 76.000000
11307, 60.000000, 340.000000, 76.000000
11308, 64.000000, 340.000000, 76.000000
11309, 68.000000, 340.000000, 76.000000
11310, 72.000000, 340.000000, 76.000000
11311, 36.000000, 344.000000, 76.000000
11312, 40.000000, 344.000000, 76.000000
11313, 44.000000, 344.000000, 76.000000
11314, 48.000000, 344.000000, 76.000000
11315, 52.000000, 344.000000, 76.000000
11316, 56.000000, 344.000000, 76.000000
11317, 60.000000, 344.000000, 76.000000
11318, 64.000000, 344.000000, 76.000000
11319, 68.000000, 344.000000, 76.000000
11320, 72.000000, 344.000000, 76.000000
11321, 36.000000, 348.000000, 76.000000
11322, 40.000000, 348.000000, 76.000000
11323, 44.000000, 348.000000, 76.000000
11324, 48.000000, 348.000000, 76.000000
11325, 52.000000, 348.000000, 76.000000
11326, 56.000000, 348.000000, 76.000000
11327, 60.000000, 348.000000, 76.000000
11328, 64.000000, 348.000000, 76.000000
11329, 68.000000, 348.000000, 76.000000
11330, 72.000000, 348.000000, 76.000000
11331, 36.000000, 352.000000, 76.000000
11332, 40.000000, 352.000000, 76.000000
11333, 44.000000, 352.000000, 76.000000
11334, 48.000000, 352.000000, 76.000000
11335, 52.000000, 352.000000, 76.000000
11336, 56.000000, 352.000000, 76.000000
11337, 60.000000, 352.000000, 76.000000
11338, 64.000000, 352.000000, 76.000000
11339, 68.000000, 352.000000, 76.000000
11340, 72.000000, 352.000000, 76.000000
11341, 36.000000, 356.000000, 76.000000
11342, 40.000000, 356.000000, 76.000000
11343, 44.000000, 356.000000, 76.000000
11344, 48.000000, 356.000000, 76.000000
11345, 52.000000, 356.000000, 76.000000
11346, 56.000000, 356.000000, 76.000000
11347, 60.000000, 356.000000, 76.000000
11348, 64.000000, 356.000000, 76.000000
11349, 68.000000, 356.000000, 76.000000
11350, 72.000000, 356.000000, 76.000000
11351, 36.000000, 360.000000, 76.000000
11352, 40.000000, 360.000000, 76.000000
11353, 44.000000, 360.000000, 76.000000
11354, 48.000000, 360.000000, 76.000000
11355, 52.000000, 360.000000, 76.000000
11356, 56.000000, 360.000000, 76.000000
11357, 60.000000, 360.000000, 76.000000
11358, 64.000000, 360.000000, 76.000000
11359, 68.000000, 360.000000, 76.000000
11360, 72.000000, 360.000000, 76.000000
11361, 36.000000, 364.000000, 76.000000
11362, 40.000000, 364.000000, 76.000000
11363, 44.000000, 364.000000, 76.000000
11364, 48.000000, 364.000000, 76.000000
11365, 52.000000, 364.000000, 76.000000
11366, 56.000000, 364.000000, 76.000000
11367, 60.000000, 364.000000, 76.000000
11368, 64.000000, 364.000000, 76.000000
11369, 68.000000, 364.000000, 76.000000
11370, 72.000000, 364.000000, 76.000000
11371, 36.000000, 368.000000, 76.000000
11372, 40.000000, 368.000000, 76.000000
11373, 44.000000, 368.000000, 76.000000
11374, 48.000000, 368.000000, 76.000000
11375, 52.000000, 368.000000, 76.000000
11376, 56.000000, 368.000000, 76.000000
11377, 60.000000, 368.000000, 76.000000
11378, 64.000000, 368.000000, 76.000000
11379, 68.000000, 368.000000, 76.000000
11380, 72.000000, 368.000000, 76.000000
11381, 36.000000, 372.000000, 76.000000
11382, 40.000000, 372.000000, 76.000000
11383, 44.000000, 372.000000, 76.000000
11384, 48.000000, 372.000000, 76.000000
11385, 52.000000, 372.000000, 76.000000
11386, 56.000000, 372.000000, 76.000000
11387, 60.000000, 372.000000, 76.000000
11388, 64.000000, 372.000000, 76.000000
11389, 68.000000, 372.000000, 76.000000
11390, 72.000000, 372.000000, 76.000000
11391, 36.000000, 376.000000, 76.000000
11392, 40.000000, 376.000000, 76.000000
11393, 44.000000, 376.000000, 76.000000
11394, 48.000000, 376.000000, 76.000000
11395, 52.000000, 376.000000, 76.000000
11396, 56.000000, 376.000000, 76.000000
11397, 60.000000, 376.000000, 76.000000
11398, 64.000000, 376.000000, 76.000000
11399, 68.000000, 376.000000, 76.000000
11400, 72.000000, 376.000000, 76.000000
11401, 36.000000, 380.000000, 76.000000
11402, 40.000000, 380.000000, 76.000000
11403, 44.000000, 380.000000, 76.000000
11404, 48.000000, 380.000000, 76.000000
11405, 52.000000, 380.000000, 76.000000
11406, 56.000000, 380.000000, 76.000000
11407, 60.000000, 380.000000, 76.000000
11408, 64.000000, 380.000000, 76.000000
11409, 68.000000, 380.000000, 76.000000
11410, 72.000000, 380.000000, 76.000000
11411, 36.000000, 384.000000, 76.000000
11412, 40.000000, 384.000000, 76.000000
11413, 44.000000, 384.000000, 76.000000
11414, 48.000000, 384.000000, 76.000000
11415, 52.000000, 384.000000, 76.000000
11416, 56.000000, 384.000000, 76.000000
11417, 60.000000, 384.000000, 76.000000
11418, 64.000000, 384.000000, 76.000000
11419, 68.000000, 384.000000, 76.000000
11420, 72.000000, 384.000000, 76.000000
11421, 36.000000, 388.000000, 76.000000
11422, 40.000000, 388.000000, 76.000000
11423, 44.000000, 388.000000, 76.000000
11424, 48.000000, 388.000000, 76.000000
11425, 52.000000, 388.000000, 76.000000
11426, 56.000000, 388.000000, 76.000000
11427, 60.000000, 388.000000, 76.000000
11428, 64.000000, 388.000000, 76.000000
11429, 68.000000, 388.000000, 76.000000
11430, 72.000000, 388.000000, 76.000000
11431, 36.000000, 392.000000, 76.000000
11432, 40.000000, 392.000000, 76.000000
11433, 44.000000, 392.000000, 76.000000
11434, 48.000000, 392.000000, 76.000000
11435, 52.000000, 392.000000, 76.000000
11436, 56.000000, 392.000000, 76.000000
11437, 60.000000, 392.000000, 76.000000
11438, 64.000000, 392.000000, 76.000000
11439, 68.000000, 392.000000, 76.000000
11440, 72.000000, 392.000000, 76.000000
11441, 36.000000, 396.000000, 76.000000
11442, 40.000000, 396.000000, 76.000000
11443, 44.000000, 396.000000, 76.000000
11444, 48.000000, 396.000000, 76.000000
11445, 52.000000, 396.000000, 76.000000
11446, 56.000000, 396.000000, 76.000000
11447, 60.000000, 396.000000, 76.000000
11448, 64.000000, 396.000000, 76.000000
11449, 68.000000, 396.000000, 76.000000
11450, 72.000000, 396.000000, 76.000000
11451, 36.000000, 400.000000, 76.000000
11452, 40.000000, 400.000000, 76.000000
11453, 44.000000, 400.000000, 76.000000
11454, 48.000000, 400.000000, 76.000000
11455, 52.000000, 400.000000, 76.000000
11456, 56.000000, 400.000000, 76.000000
11457, 60.000000, 400.000000, 76.000000
11458, 64.000000, 400.000000, 76.000000
11459, 68.000000, 400.000000, 76.000000
11460, 72.000000, 400.000000, 76.000000
11461, 36.000000, 404.000000, 76.000000
11462, 40.000000, 404.000000, 76.000000
11463, 44.000000, 404.000000, 76.000000
11464, 48.000000, 404.000000, 76.000000
11465, 52.000000, 404.000000, 76.000000
11466, 56.000000, 404.000000, 76.000000
11467, 60.000000, 404.000000, 76.000000
11468, 64.000000, 404.000000, 76.000000
11469, 68.000000, 404.000000, 76.000000
11470, 72.000000, 404.000000, 76.000000
11471, 36.000000, 408.000000, 76.000000
11472, 40.000000, 408.000000, 76.000000
11473, 44.000000, 408.000000, 76.000000
11474, 48.000000, 408.000000, 76.000000
11475, 52.000000, 408.000000, 76.000000
11476, 56.000000, 408.000000, 76.000000
11477, 60.000000, 408.000000, 76.000000
11478, 64.000000, 408.000000, 76.000000
11479, 68.000000, 408.000000, 76.000000
11480, 72.000000, 408.000000, 76.000000
11481, 36.000000, 412.000000, 76.000000
11482, 40.000000, 412.000000, 76.000000
11483, 44.000000, 412.000000, 76.000000
11484, 48.000000, 412.000000, 76.000000
11485, 52.000000, 412.000000, 76.000000
11486, 56.000000, 412.000000, 76.000000
11487, 60.000000, 412.000000, 76.000000
11488, 64.000000, 412.000000, 76.000000
11489, 68.000000, 412.000000, 76.000000
11490, 72.000000, 412.000000, 76.000000
11491, 36.000000, 416.000000, 76.000000
11492, 40.000000, 416.000000, 76.000000
11493, 44.000000, 416.000000, 76.000000
11494, 48.000000, 416.000000, 76.000000
11495, 52.000000, 416.000000, 76.000000
11496, 56.000000, 416.000000, 76.000000
11497, 60.000000, 416.000000, 76.000000
11498, 64.000000, 416.000000, 76.000000
11499, 68.000000, 416.000000, 76.000000
11500, 72.000000, 416.000000, 76.000000
11501, 36.000000, 420.000000, 76.000000
11502, 40.000000, 420.000000, 76.000000
11503, 44.000000, 420.000000, 76.000000
11504, 48.000000, 420.000000, 76.000000
11505, 52.000000, 420.000000, 76.000000
11506, 56.000000, 420.000000, 76.000000
11507, 60.000000, 420.000000, 76.000000
11508, 64.000000, 420.000000, 76.000000
11509, 68.000000, 420.000000, 76.000000
11510, 72.000000, 420.000000, 76.000000
11511, 36.000000, 424.000000, 76.000000
11512, 40.000000, 424.000000, 76.000000
11513, 44.000000, 424.000000, 76.000000
11514, 48.000000, 424.000000, 76.000000
11515, 52.000000, 424.000000, 76.000000
11516, 56.000000, 424.000000, 76.000000
11517, 60.000000, 424.000000, 76.000000
11518, 64.000000, 424.000000, 76.000000
11519, 68.000000, 424.000000, 76.000000
11520, 72.000000, 424.000000, 76.000000
11521, 36.000000, 428.000000, 76.000000
11522, 40.000000, 428.000000, 76.000000
11523, 44.000000, 428.000000, 76.000000
11524, 48.000000, 428.000000, 76.000000
11525, 52.000000, 428.000000, 76.000000
11526, 56.000000, 428.000000, 76.000000
11527, 60.000000, 428.000000, 76.000000
11528, 64.000000, 428.000000, 76.000000
11529, 68.000000, 428.000000, 76.000000
11530, 72.000000, 428.000000, 76.000000
11531, 36.000000, 432.000000, 76.000000
11532, 40.000000, 432.000000, 76.000000
11533, 44.000000, 432.000000, 76.000000
11534, 48.000000, 432.000000, 76.000000
11535, 52.000000, 432.000000, 76.000000
11536, 56.000000, 432.000000, 76.000000
11537, 60.000000, 432.000000, 76.000000
11538, 64.000000, 432.000000, 76.000000
11539, 68.000000, 432.000000, 76.000000
11540, 72.000000, 432.000000, 76.000000
11541, 36.000000, 436.000000, 76.000000
11542, 40.000000, 436.000000, 76.000000
11543, 44.000000, 436.000000, 76.000000
11544, 48.000000, 436.000000, 76.000000
11545, 52.000000, 436.000000, 76.000000
11546, 56.000000, 436.000000, 76.000000
11547, 60.000000, 436.000000, 76.000000
11548, 64.000000, 436.000000, 76.000000
11549, 68.000000, 436.000000, 76.000000
11550, 72.000000, 436.000000, 76.000000
11551, 36.000000, 440.000000, 76.000000
11552, 40.000000, 440.000000, 76.000000
11553, 44.000000, 440.000000, 76.000000
11554, 48.000000, 440.000000, 76.000000
11555, 52.000000, 440.000000, 76.000000
11556, 56.000000, 440.000000, 76.000000
11557, 60.000000, 440.000000, 76.000000
11558, 64.000000, 440.000000, 76.000000
11559, 68.000000, 440.000000, 76.000000
11560, 72.000000, 440.000000, 76.000000
11561, 36.000000, 444.000000, 76.000000
11562, 40.000000, 444.000000, 76.000000
11563, 44.000000, 444.000000, 76.000000
11564, 48.000000, 444.000000, 76.000000
11565, 52.000000, 444.000000, 76.000000
11566, 56.000000, 444.000000, 76.000000
11567, 60.000000, 444.000000, 76.000000
11568, 64.000000, 444.000000, 76.000000
11569, 68.000000, 444.000000, 76.000000
11570, 72.000000, 444.000000, 76.000000
11571, 36.000000, 448.000000, 76.000000
11572, 40.000000, 448.000000, 76.000000
11573, 44.000000, 448.000000, 76.000000
11574, 48.000000, 448.000000, 76.000000
11575, 52.000000, 448.000000, 76.000000
11576, 56.000000, 448.000000, 76.000000
11577, 60.000000, 448.000000, 76.000000
11578, 64.000000, 448.000000, 76.000000
11579, 68.000000, 448.000000, 76.000000
11580, 72.000000, 448.000000, 76.000000
11581, 36.000000, 452.000000, 76.000000
11582, 40.000000, 452.000000, 76.000000
11583, 44.000000, 452.000000, 76.000000
11584, 48.000000, 452.000000, 76.000000
11585, 52.000000, 452.000000, 76.000000
11586, 56.000000, 452.000000, 76.000000
11587, 60.000000, 452.000000, 76.000000
11588, 64.000000, 452.000000, 76.000000
11589, 68.000000, 452.000000, 76.000000
11590, 72.000000, 452.000000, 76.000000
11591, 36.000000, 456.000000, 76.000000
11592, 40.000000, 456.000000, 76.000000
11593, 44.000000, 456.000000, 76.000000
11594, 48.000000, 456.000000, 76.000000
11595, 52.000000, 456.000000, 76.000000
11596, 56.000000, 456.000000, 76.000000
11597, 60.000000, 456.000000, 76.000000
11598, 64.000000, 456.000000, 76.000000
11599, 68.000000, 456.000000, 76.000000
11600, 72.000000, 456.000000, 76.000000
11601, 36.000000, 228.000000, 80.000000
11602, 40.000000, 228.000000, 80.000000
11603, 44.000000, 228.000000, 80.000000
11604, 48.000000, 228.000000, 80.000000
11605, 52.000000, 228.000000, 80.000000
11606, 56.000000, 228.000000, 80.000000
11607, 60.000000, 228.000000, 80.000000
11608, 64.000000, 228.000000, 80.000000
11609, 68.000000, 228.000000, 80.000000
11610, 72.000000, 228.000000, 80.000000
11611, 36.000000, 232.000000, 80.000000
11612, 40.000000, 232.000000, 80.000000
11613, 44.000000, 232.000000, 80.000000
11614, 48.000000, 232.000000, 80.000000
11615, 52.000000, 232.000000, 80.000000
11616, 56.000000, 232.000000, 80.000000
11617, 60.000000, 232.000000, 80.000000
11618, 64.000000, 232.000000, 80.000000
11619, 68.000000, 232.000000, 80.000000
11620, 72.000000, 232.000000, 80.000000
11621, 36.000000, 236.000000, 80.000000
11622, 40.000000, 236.000000, 80.000000
11623, 44.000000, 236.000000, 80.000000
11624, 48.000000, 236.000000, 80.000000
11625, 52.000000, 236.000000, 80.000000
11626, 56.000000, 236.000000, 80.000000
11627, 60.000000, 236.000000, 80.000000
11628, 64.000000, 236.000000, 80.000000
11629, 68.000000, 236.000000, 80.000000
11630, 72.000000, 236.000000, 80.000000
11631, 36.000000, 240.000000, 80.000000
11632, 40.000000, 240.000000, 80.000000
11633, 44.000000, 240.000000, 80.000000
11634, 48.000000, 240.000000, 80.000000
11635, 52.000000, 240.000000, 80.000000
11636, 56.000000, 240.000000, 80.000000
11637, 60.000000, 240.000000, 80.000000
11638, 64.000000, 240.000000, 80.000000
11639, 68.000000, 240.000000, 80.000000
11640, 72.000000, 240.000000, 80.000000
11641, 36.000000, 244.000000, 80.000000
11642, 40.000000, 244.000000, 80.000000
11643, 44.000000, 244.000000, 80.000000
11644, 48.000000, 244.000000, 80.000000
11645, 52.000000, 244.000000, 80.000000
11646, 56.000000, 244.000000, 80.000000
11647, 60.000000, 244.000000, 80.000000
11648, 64.000000, 244.000000, 80.000000
11649, 68.000000, 244.000000, 80.000000
11650, 72.000000, 244.000000, 80.000000
11651, 36.000000, 248.000000, 80.000000
11652, 40.000000, 248.000000, 80.000000
11653, 44.000000, 248.000000, 80.000000
11654, 48.000000, 248.000000, 80.000000
11655, 52.000000, 248.000000, 80.000000
11656, 56.000000, 248.000000, 80.000000
11657, 60.000000, 248.000000, 80.000000
11658, 64.000000, 248.000000, 80.000000
11659, 68.000000, 248.000000, 80.000000
11660, 72.000000, 248.000000, 80.000000
11661, 36.000000, 252.000000, 80.000000
11662, 40.000000, 252.000000, 80.000000
11663, 44.000000, 252.000000, 80.000000
11664, 48.000000, 252.000000, 80.000000
11665, 52.000000, 252.000000, 80.000000
11666, 56.000000, 252.000000, 80.000000
11667, 60.000000, 252.000000, 80.000000
11668, 64.000000, 252.000000, 80.000000
11669, 68.000000, 252.000000, 80.000000
11670, 72.000000, 252.000000, 80.000000
11671, 36.000000, 256.000000, 80.000000
11672, 40.000000, 256.000000, 80.000000
11673, 44.000000, 256.000000, 80.000000
11674, 48.000000, 256.000000, 80.000000
11675, 52.000000, 256.000000, 80.000000
11676, 56.000000, 256.000000, 80.000000
11677, 60.000000, 256.000000, 80.000000
11678, 64.000000, 256.000000, 80.000000
11679, 68.000000, 256.000000, 80.000000
11680, 72.000000, 256.000000, 80.000000
11681, 36.000000, 260.000000, 80.000000
11682, 40.000000, 260.000000, 80.000000
11683, 44.000000, 260.000000, 80.000000
11684, 48.000000, 260.000000, 80.000000
11685, 52.000000, 260.000000, 80.000000
11686, 56.000000, 260.000000, 80.000000
11687, 60.000000, 260.000000, 80.000000
11688, 64.000000, 260.000000, 80.000000
11689, 68.000000, 260.000000, 80.000000
11690, 72.000000, 260.000000, 80.000000
11691, 36.000000, 264.000000, 80.000000
11692, 40.000000, 264.000000, 80.000000
11693, 44.000000, 264.000000, 80.000000
11694, 48.000000, 264.000000, 80.000000
11695, 52.000000, 264.000000, 80.000000
11696, 56.000000, 264.000000, 80.000000
11697, 60.000000, 264.000000, 80.000000
11698, 64.000000, 264.000000, 80.000000
11699, 68.000000, 264.000000, 80.000000
11700, 72.000000, 264.000000, 80.000000
11701, 36.000000, 268.000000, 80.000000
11702, 40.000000, 268.000000, 80.000000
11703, 44.000000, 268.000000, 80.000000
11704, 48.000000, 268.000000, 80.000000
11705, 52.000000, 268.000000, 80.000000
11706, 56.000000, 268.000000, 80.000000
11707, 60.000000, 268.000000, 80.000000
11708, 64.000000, 268.000000, 80.000000
11709, 68.000000, 268.000000, 80.000000
11710, 72.000000, 268.000000, 80.000000
11711, 36.000000, 272.000000, 80.000000
11712, 40.000000, 272.000000, 80.000000
11713, 44.000000, 272.000000, 80.000000
11714, 48.000000, 272.000000, 80.000000
11715, 52.000000, 272.000000, 80.000000
11716, 56.000000, 272.000000, 80.000000
11717, 60.000000, 272.000000, 80.000000
11718, 64.000000, 272.000000, 80.000000
11719, 68.000000, 272.000000, 80.000000
11720, 72.000000, 272.000000, 80.000000
11721, 36.000000, 276.000000, 80.000000
11722, 40.000000, 276.000000, 80.000000
11723, 44.000000, 276.000000, 80.000000
11724, 48.000000, 276.000000, 80.000000
11725, 52.000000, 276.000000, 80.000000
11726, 56.000000, 276.000000, 80.000000
11727, 60.000000, 276.000000, 80.000000
11728, 64.000000, 276.000000, 80.000000
11729, 68.000000, 276.000000, 80.000000
11730, 72.000000, 276.000000, 80.000000
11731, 36.000000, 280.000000, 80.000000
11732, 40.000000, 280.000000, 80.000000
11733, 44.000000, 280.000000, 80.000000
11734, 48.000000, 280.000000, 80.000000
11735, 52.000000, 280.000000, 80.000000
11736, 56.000000, 280.000000, 80.000000
11737, 60.000000, 280.000000, 80.000000
11738, 64.000000, 280.000000, 80.000000
11739, 68.000000, 280.000000, 80.000000
11740, 72.000000, 280.000000, 80.000000
11741, 36.000000, 284.000000, 80.000000
11742, 40.000000, 284.000000, 80.000000
11743, 44.000000, 284.000000, 80.000000
11744, 48.000000, 284.000000, 80.000000
11745, 52.000000, 284.000000, 80.000000
11746, 56.000000, 284.000000, 80.000000
11747, 60.000000, 284.000000, 80.000000
11748, 64.000000, 284.000000, 80.000000
11749, 68.000000, 284.000000, 80.000000
11750, 72.000000, 284.000000, 80.000000
11751, 36.000000, 288.000000, 80.000000
11752, 40.000000, 288.000000, 80.000000
11753, 44.000000, 288.000000, 80.000000
11754, 48.000000, 288.000000, 80.000000
11755, 52.000000, 288.000000, 80.000000
11756, 56.000000, 288.000000, 80.000000
11757, 60.000000, 288.000000, 80.000000
11758, 64.000000, 288.000000, 80.000000
11759, 68.000000, 288.000000, 80.000000
11760, 72.000000, 288.000000, 80.000000
11761, 36.000000, 292.000000, 80.000000
11762, 40.000000, 292.000000, 80.000000
11763, 44.000000, 292.000000, 80.000000
11764, 48.000000, 292.000000, 80.000000
11765, 52.000000, 292.000000, 80.000000
11766, 56.000000, 292.000000, 80.000000
11767, 60.000000, 292.000000, 80.000000
11768, 64.000000, 292.000000, 80.000000
11769, 68.000000, 292.000000, 80.000000
11770, 72.000000, 292.000000, 80.000000
11771, 36.000000, 296.000000, 80.000000
11772, 40.000000, 296.000000, 80.000000
11773, 44.000000, 296.000000, 80.000000
11774, 48.000000, 296.000000, 80.000000
11775, 52.000000, 296.000000, 80.000000
11776, 56.000000, 296.000000, 80.000000
11777, 60.000000, 296.000000, 80.000000
11778, 64.000000, 296.000000, 80.000000
11779, 68.000000, 296.000000, 80.000000
11780, 72.000000, 296.000000, 80.000000
11781, 36.000000, 300.000000, 80.000000
11782, 40.000000, 300.000000, 80.000000
11783, 44.000000, 300.000000, 80.000000
11784, 48.000000, 300.000000, 80.000000
11785, 52.000000, 300.000000, 80.000000
11786, 56.000000, 300.000000, 80.000000
11787, 60.000000, 300.000000, 80.000000
11788, 64.000000, 300.000000, 80.000000
11789, 68.000000, 300.000000, 80.000000
11790, 72.000000, 300.000000, 80.000000
11791, 36.000000, 304.000000, 80.000000
11792, 40.000000, 304.000000, 80.000000
11793, 44.000000, 304.000000, 80.000000
11794, 48.000000, 304.000000, 80.000000
11795, 52.000000, 304.000000, 80.000000
11796, 56.000000, 304.000000, 80.000000
11797, 60.000000, 304.000000, 80.000000
11798, 64.000000, 304.000000, 80.000000
11799, 68.000000, 304.000000, 80.000000
11800, 72.000000, 304.000000, 80.000000
11801, 36.000000, 308.000000, 80.000000
11802, 40.000000, 308.000000, 80.000000
11803, 44.000000, 308.000000, 80.000000
11804, 48.000000, 308.000000, 80.000000
11805, 52.000000, 308.000000, 80.000000
11806, 56.000000, 308.000000, 80.000000
11807, 60.000000, 308.000000, 80.000000
11808, 64.000000, 308.000000, 80.000000
11809, 68.000000, 308.000000, 80.000000
11810, 72.000000, 308.000000, 80.000000
11811, 36.000000, 312.000000, 80.000000
11812, 40.000000, 312.000000, 80.000000
11813, 44.000000, 312.000000, 80.000000
11814, 48.000000, 312.000000, 80.000000
11815, 52.000000, 312.000000, 80.000000
11816, 56.000000, 312.000000, 80.000000
11817, 60.000000, 312.000000, 80.000000
11818, 64.000000, 312.000000, 80.000000
11819, 68.000000, 312.000000, 80.000000
11820, 72.000000, 312.000000, 80.000000
11821, 36.000000, 316.000000, 80.000000
11822, 40.000000, 316.000000, 80.000000
11823, 44.000000, 316.000000, 80.000000
11824, 48.000000, 316.000000, 80.000000
11825, 52.000000, 316.000000, 80.000000
11826, 56.000000, 316.000000, 80.000000
11827, 60.000000, 316.000000, 80.000000
11828, 64.000000, 316.000000, 80.000000
11829, 68.000000, 316.000000, 80.000000
11830, 72.000000, 316.000000, 80.000000
11831, 36.000000, 320.000000, 80.000000
11832, 40.000000, 320.000000, 80.000000
11833, 44.000000, 320.000000, 80.000000
11834, 48.000000, 320.000000, 80.000000
11835, 52.000000, 320.000000, 80.000000
11836, 56.000000, 320.000000, 80.000000
11837, 60.000000, 320.000000, 80.000000
11838, 64.000000, 320.000000, 80.000000
11839, 68.000000, 320.000000, 80.000000
11840, 72.000000, 320.000000, 80.000000
11841, 36.000000, 324.000000, 80.000000
11842, 40.000000, 324.000000, 80.000000
11843, 44.000000, 324.000000, 80.000000
11844, 48.000000, 324.000000, 80.000000
11845, 52.000000, 324.000000, 80.000000
11846, 56.000000, 324.000000, 80.000000
11847, 60.000000, 324.000000, 80.000000
11848, 64.000000, 324.000000, 80.000000
11849, 68.000000, 324.000000, 80.000000
11850, 72.000000, 324.000000, 80.000000
11851, 36.000000, 328.000000, 80.000000
11852, 40.000000, 328.000000, 80.000000
11853, 44.000000, 328.000000, 80.000000
11854, 48.000000, 328.000000, 80.000000
11855, 52.000000, 328.000000, 80.000000
11856, 56.000000, 328.000000, 80.000000
11857, 60.000000, 328.000000, 80.000000
11858, 64.000000, 328.000000, 80.000000
11859, 68.000000, 328.000000, 80.000000
11860, 72.000000, 328.000000, 80.000000
11861, 36.000000, 332.000000, 80.000000
11862, 40.000000, 332.000000, 80.000000
11863, 44.000000, 332.000000, 80.000000
11864, 48.000000, 332.000000, 80.000000
11865, 52.000000, 332.000000, 80.000000
11866, 56.000000, 332.000000, 80.000000
11867, 60.000000, 332.000000, 80.000000
11868, 64.000000, 332.000000, 80.000000
11869, 68.000000, 332.000000, 80.000000
11870, 72.000000, 332.000000, 80.000000
11871, 36.000000, 336.000000, 80.000000
11872, 40.000000, 336.000000, 80.000000
11873, 44.000000, 336.000000, 80.000000
11874, 48.000000, 336.000000, 80.000000
11875, 52.000000, 336.000000, 80.000000
11876, 56.000000, 336.000000, 80.000000
11877, 60.000000, 336.000000, 80.000000
11878, 64.000000, 336.000000, 80.000000
11879, 68.000000, 336.000000, 80.000000
11880, 72.000000, 336.000000, 80.000000
11881, 36.000000, 340.000000, 80.000000
11882, 40.000000, 340.000000, 80.000000
11883, 44.000000, 340.000000, 80.000000
11884, 48.000000, 340.000000, 80.000000
11885, 52.000000, 340.000000, 80.000000
11886, 56.000000, 340.000000, 80.000000
11887, 60.000000, 340.000000, 80.000000
11888, 64.000000, 340.000000, 80.000000
11889, 68.000000, 340.000000, 80.000000
11890, 72.000000, 340.000000, 80.000000
11891, 36.000000, 344.000000, 80.000000
11892, 40.000000, 344.000000, 80.000000
11893, 44.000000, 344.000000, 80.000000
11894, 48.000000, 344.000000, 80.000000
11895, 52.000000, 344.000000, 80.000000
11896, 56.000000, 344.000000, 80.000000
11897, 60.000000, 344.000000, 80.000000
11898, 64.000000, 344.000000, 80.000000
11899, 68.000000, 344.000000, 80.000000
11900, 72.000000, 344.000000, 80.000000
11901, 36.000000, 348.000000, 80.000000
11902, 40.000000, 348.000000, 80.000000
11903, 44.000000, 348.000000, 80.000000
11904, 48.000000, 348.000000, 80.000000
11905, 52.000000, 348.000000, 80.000000
11906, 56.000000, 348.000000, 80.000000
11907, 60.000000, 348.000000, 80.000000
11908, 64.000000, 348.000000, 80.000000
11909, 68.000000, 348.000000, 80.000000
11910, 72.000000, 348.000000, 80.000000
11911, 36.000000, 352.000000, 80.000000
11912, 40.000000, 352.000000, 80.000000
11913, 44.000000, 352.000000, 80.000000
11914, 48.000000, 352.000000, 80.000000
11915, 52.000000, 352.000000, 80.000000
11916, 56.000000, 352.000000, 80.000000
11917, 60.000000, 352.000000, 80.000000
11918, 64.000000, 352.000000, 80.000000
11919, 68.000000, 352.000000, 80.000000
11920, 72.000000, 352.000000, 80.000000
11921, 36.000000, 356.000000, 80.000000
11922, 40.000000, 356.000000, 80.000000
11923, 44.000000, 356.000000, 80.000000
11924, 48.000000, 356.000000, 80.000000
11925, 52.000000, 356.000000, 80.000000
11926, 56.000000, 356.000000, 80.000000
11927, 60.000000, 356.000000, 80.000000
11928, 64.000000, 356.000000, 80.000000
11929, 68.000000, 356.000000, 80.000000
11930, 72.000000, 356.000000, 80.000000
11931, 36.000000, 360.000000, 80.000000
11932, 40.000000, 360.000000, 80.000000
11933, 44.000000, 360.000000, 80.000000
11934, 48.000000, 360.000000, 80.000000
11935, 52.000000, 360.000000, 80.000000
11936, 56.000000, 360.000000, 80.000000
11937, 60.000000, 360.000000, 80.000000
11938, 64.000000, 360.000000, 80.000000
11939, 68.000000, 360.000000, 80.000000
11940, 72.000000, 360.000000, 80.000000
11941, 36.000000, 364.000000, 80.000000
11942, 40.000000, 364.000000, 80.000000
11943, 44.000000, 364.000000, 80.000000
11944, 48.000000, 364.000000, 80.000000
11945, 52.000000, 364.000000, 80.000000
11946, 56.000000, 364.000000, 80.000000
11947, 60.000000, 364.000000, 80.000000
11948, 64.000000, 364.000000, 80.000000
11949, 68.000000, 364.000000, 80.000000
11950, 72.000000, 364.000000, 80.000000
11951, 36.000000, 368.000000, 80.000000
11952, 40.000000, 368.000000, 80.000000
11953, 44.000000, 368.000000, 80.000000
11954, 48.000000, 368.000000, 80.000000
11955, 52.000000, 368.000000, 80.000000
11956, 56.000000, 368.000000, 80.000000
11957, 60.000000, 368.000000, 80.000000
11958, 64.000000, 368.000000, 80.000000
11959, 68.000000, 368.000000, 80.000000
11960, 72.000000, 368.000000, 80.000000
11961, 36.000000, 372.000000, 80.000000
11962, 40.000000, 372.000000, 80.000000
11963, 44.000000, 372.000000, 80.000000
11964, 48.000000, 372.000000, 80.000000
11965, 52.000000, 372.000000, 80.000000
11966, 56.000000, 372.000000, 80.000000
11967, 60.000000, 372.000000, 80.000000
11968, 64.000000, 372.000000, 80.000000
11969, 68.000000, 372.000000, 80.000000
11970, 72.000000, 372.000000, 80.000000
11971, 36.000000, 376.000000, 80.000000
11972, 40.000000, 376.000000, 80.000000
11973, 44.000000, 376.000000, 80.000000
11974, 48.000000, 376.000000, 80.000000
11975, 52.000000, 376.000000, 80.000000
11976, 56.000000, 376.000000, 80.000000
11977, 60.000000, 376.000000, 80.000000
11978, 64.000000, 376.000000, 80.000000
11979, 68.000000, 376.000000, 80.000000
11980, 72.000000, 376.000000, 80.000000
11981, 36.000000, 380.000000, 80.000000
11982, 40.000000, 380.000000, 80.000000
11983, 44.000000, 380.000000, 80.000000
11984, 48.000000, 380.000000, 80.000000
11985, 52.000000, 380.000000, 80.000000
11986, 56.000000, 380.000000, 80.000000
11987, 60.000000, 380.000000, 80.000000
11988, 64.000000, 380.000000, 80.000000
11989, 68.000000, 380.000000, 80.000000
11990, 72.000000, 380.000000, 80.000000
11991, 36.000000, 384.000000, 80.000000
11992, 40.000000, 384.000000, 80.000000
11993, 44.000000, 384.000000, 80.000000
11994, 48.000000, 384.000000, 80.000000
11995, 52.000000, 384.000000, 80.000000
11996, 56.000000, 384.000000, 80.000000
11997, 60.000000, 384.000000, 80.000000
11998, 64.000000, 384.000000, 80.000000
11999, 68.000000, 384.000000, 80.000000
12000, 72.000000, 384.000000, 80.000000
12001, 36.000000, 388.000000, 80.000000
12002, 40.000000, 388.000000, 80.000000
12003, 44.000000, 388.000000, 80.000000
12004, 48.000000, 388.000000, 80.000000
12005, 52.000000, 388.000000, 80.000000
12006, 56.000000, 388.000000, 80.000000
12007, 60.000000, 388.000000, 80.000000
12008, 64.000000, 388.000000, 80.000000
12009, 68.000000, 388.000000, 80.000000
12010, 72.000000, 388.000000, 80.000000
12011, 36.000000, 392.000000, 80.000000
12012, 40.000000, 392.000000, 80.000000
12013, 44.000000, 392.000000, 80.000000
12014, 48.000000, 392.000000, 80.000000
12015, 52.000000, 392.000000, 80.000000
12016, 56.000000, 392.000000, 80.000000
12017, 60.000000, 392.000000, 80.000000
12018, 64.000000, 392.000000, 80.000000
12019, 68.000000, 392.000000, 80.000000
12020, 72.000000, 392.000000, 80.000000
12021, 36.000000, 396.000000, 80.000000
12022, 40.000000, 396.000000, 80.000000
12023, 44.000000, 396.000000, 80.000000
12024, 48.000000, 396.000000, 80.000000
12025, 52.000000, 396.000000, 80.000000
12026, 56.000000, 396.000000, 80.000000
12027, 60.000000, 396.000000, 80.000000
12028, 64.000000, 396.000000, 80.000000
12029, 68.000000, 396.000000, 80.000000
12030, 72.000000, 396.000000, 80.000000
12031, 36.000000, 400.000000, 80.000000
12032, 40.000000, 400.000000, 80.000000
12033, 44.000000, 400.000000, 80.000000
12034, 48.000000, 400.000000, 80.000000
12035, 52.000000, 400.000000, 80.000000
12036, 56.000000, 400.000000, 80.000000
12037, 60.000000, 400.000000, 80.000000
12038, 64.000000, 400.000000, 80.000000
12039, 68.000000, 400.000000, 80.000000
12040, 72.000000, 400.000000, 80.000000
12041, 36.000000, 404.000000, 80.000000
12042, 40.000000, 404.000000, 80.000000
12043, 44.000000, 404.000000, 80.000000
12044, 48.000000, 404.000000, 80.000000
12045, 52.000000, 404.000000, 80.000000
12046, 56.000000, 404.000000, 80.000000
12047, 60.000000, 404.000000, 80.000000
12048, 64.000000, 404.000000, 80.000000
12049, 68.000000, 404.000000, 80.000000
12050, 72.000000, 404.000000, 80.000000
12051, 36.000000, 408.000000, 80.000000
12052, 40.000000, 408.000000, 80.000000
12053, 44.000000, 408.000000, 80.000000
12054, 48.000000, 408.000000, 80.000000
12055, 52.000000, 408.000000, 80.000000
12056, 56.000000, 408.000000, 80.000000
12057, 60.000000, 408.000000, 80.000000
12058, 64.000000, 408.000000, 80.000000
12059, 68.000000, 408.000000, 80.000000
12060, 72.000000, 408.000000, 80.000000
12061, 36.000000, 412.000000, 80.000000
12062, 40.000000, 412.000000, 80.000000
12063, 44.000000, 412.000000, 80.000000
12064, 48.000000, 412.000000, 80.000000
12065, 52.000000, 412.000000, 80.000000
12066, 56.000000, 412.000000, 80.000000
12067, 60.000000, 412.000000, 80.000000
12068, 64.000000, 412.000000, 80.000000
12069, 68.000000, 412.000000, 80.000000
12070, 72.000000, 412.000000, 80.000000
12071, 36.000000, 416.000000, 80.000000
12072, 40.000000, 416.000000, 80.000000
12073, 44.000000, 416.000000, 80.000000
12074, 48.000000, 416.000000, 80.000000
12075, 52.000000, 416.000000, 80.000000
12076, 56.000000, 416.000000, 80.000000
12077, 60.000000, 416.000000, 80.000000
12078, 64.000000, 416.000000, 80.000000
12079, 68.000000, 416.000000, 80.000000
12080, 72.000000, 416.000000, 80.000000
12081, 36.000000, 420.000000, 80.000000
12082, 40.000000, 420.000000, 80.000000
12083, 44.000000, 420.000000, 80.000000
12084, 48.000000, 420.000000, 80.000000
12085, 52.000000, 420.000000, 80.000000
12086, 56.000000, 420.000000, 80.000000
12087, 60.000000, 420.000000, 80.000000
12088, 64.000000, 420.000000, 80.000000
12089, 68.000000, 420.000000, 80.000000
12090, 72.000000, 420.000000, 80.000000
12091, 36.000000, 424.000000, 80.000000
12092, 40.000000, 424.000000, 80.000000
12093, 44.000000, 424.000000, 80.000000
12094, 48.000000, 424.000000, 80.000000
12095, 52.000000, 424.000000, 80.000000
12096, 56.000000, 424.000000, 80.000000
12097, 60.000000, 424.000000, 80.000000
12098, 64.000000, 424.000000, 80.000000
12099, 68.000000, 424.000000, 80.000000
12100, 72.000000, 424.000000, 80.000000
12101, 36.000000, 428.000000, 80.000000
12102, 40.000000, 428.000000, 80.000000
12103, 44.000000, 428.000000, 80.000000
12104, 48.000000, 428.000000, 80.000000
12105, 52.000000, 428.000000, 80.000000
12106, 56.000000, 428.000000, 80.000000
12107, 60.000000, 428.000000, 80.000000
12108, 64.000000, 428.000000, 80.000000
12109, 68.000000, 428.000000, 80.000000
12110, 72.000000, 428.000000, 80.000000
12111, 36.000000, 432.000000, 80.000000
12112, 40.000000, 432.000000, 80.000000
12113, 44.000000, 432.000000, 80.000000
12114, 48.000000, 432.000000, 80.000000
12115, 52.000000, 432.000000, 80.000000
12116, 56.000000, 432.000000, 80.000000
12117, 60.000000, 432.000000, 80.000000
12118, 64.000000, 432.000000, 80.000000
12119, 68.000000, 432.000000, 80.000000
12120, 72.000000, 432.000000, 80.000000
12121, 36.000000, 436.000000, 80.000000
12122, 40.000000, 436.000000, 80.000000
12123, 44.000000, 436.000000, 80.000000
12124, 48.000000, 436.000000, 80.000000
12125, 52.000000, 436.000000, 80.000000
12126, 56.000000, 436.000000, 80.000000
12127, 60.000000, 436.000000, 80.000000
12128, 64.000000, 436.000000, 80.000000
12129, 68.000000, 436.000000, 80.000000
12130, 72.000000, 436.000000, 80.000000
12131, 36.000000, 440.000000, 80.000000
12132, 40.000000, 440.000000, 80.000000
12133, 44.000000, 440.000000, 80.000000
12134, 48.000000, 440.000000, 80.000000
12135, 52.000000, 440.000000, 80.000000
12136, 56.000000, 440.000000, 80.000000
12137, 60.000000, 440.000000, 80.000000
12138, 64.000000, 440.000000, 80.000000
12139, 68.000000, 440.000000, 80.000000
12140, 72.000000, 440.000000, 80.000000
12141, 36.000000, 444.000000, 80.000000
12142, 40.000000, 444.000000, 80.000000
12143, 44.000000, 444.000000, 80.000000
12144, 48.000000, 444.000000, 80.000000
12145, 52.000000, 444.000000, 80.000000
12146, 56.000000, 444.000000, 80.000000
12147, 60.000000, 444.000000, 80.000000
12148, 64.000000, 444.000000, 80.000000
12149, 68.000000, 444.000000, 80.000000
12150, 72.000000, 444.000000, 80.000000
12151, 36.000000, 448.000000, 80.000000
12152, 40.000000, 448.000000, 80.000000
12153, 44.000000, 448.000000, 80.000000
12154, 48.000000, 448.000000, 80.000000
12155, 52.000000, 448.000000, 80.000000
12156, 56.000000, 448.000000, 80.000000
12157, 60.000000, 448.000000, 80.000000
12158, 64.000000, 448.000000, 80.000000
12159, 68.000000, 448.000000, 80.000000
12160, 72.000000, 448.000000, 80.000000
12161, 36.000000, 452.000000, 80.000000
12162, 40.000000, 452.000000, 80.000000
12163, 44.000000, 452.000000, 80.000000
12164, 48.000000, 452.000000, 80.000000
12165, 52.000000, 452.000000, 80.000000
12166, 56.000000, 452.000000, 80.000000
12167, 60.000000, 452.000000, 80.000000
12168, 64.000000, 452.000000, 80.000000
12169, 68.000000, 452.000000, 80.000000
12170, 72.000000, 452.000000, 80.000000
12171, 36.000000, 456.000000, 80.000000
12172, 40.000000, 456.000000, 80.000000
12173, 44.000000, 456.000000, 80.000000
12174, 48.000000, 456.000000, 80.000000
12175, 52.000000, 456.000000, 80.000000
12176, 56.000000, 456.000000, 80.000000
12177, 60.000000, 456.000000, 80.000000
12178, 64.000000, 456.000000, 80.000000
12179, 68.000000, 456.000000, 80.000000
12180, 72.000000, 456.000000, 80.000000
12181, 36.000000, 228.000000, 84.000000
12182, 40.000000, 228.000000, 84.000000
12183, 44.000000, 228.000000, 84.000000
12184, 48.000000, 228.000000, 84.000000
12185, 52.000000, 228.000000, 84.000000
12186, 56.000000, 228.000000, 84.000000
12187, 60.000000, 228.000000, 84.000000
12188, 64.000000, 228.000000, 84.000000
12189, 68.000000, 228.000000, 84.000000
12190, 72.000000, 228.000000, 84.000000
12191, 36.000000, 232.000000, 84.000000
12192, 40.000000, 232.000000, 84.000000
12193, 44.000000, 232.000000, 84.000000
12194, 48.000000, 232.000000, 84.000000
12195, 52.000000, 232.000000, 84.000000
12196, 56.000000, 232.000000, 84.000000
12197, 60.000000, 232.000000, 84.000000
12198, 64.000000, 232.000000, 84.000000
12199, 68.000000, 232.000000, 84.000000
12200, 72.000000, 232.000000, 84.000000
12201, 36.000000, 236.000000, 84.000000
12202, 40.000000, 236.000000, 84.000000
12203, 44.000000, 236.000000, 84.000000
12204, 48.000000, 236.000000, 84.000000
12205, 52.000000, 236.000000, 84.000000
12206, 56.000000, 236.000000, 84.000000
12207, 60.000000, 236.000000, 84.000000
12208, 64.000000, 236.000000, 84.000000
12209, 68.000000, 236.000000, 84.000000
12210, 72.000000, 236.000000, 84.000000
12211, 36.000000, 240.000000, 84.000000
12212, 40.000000, 240.000000, 84.000000
12213, 44.000000, 240.000000, 84.000000
12214, 48.000000, 240.000000, 84.000000
12215, 52.000000, 240.000000, 84.000000
12216, 56.000000, 240.000000, 84.000000
12217, 60.000000, 240.000000, 84.000000
12218, 64.000000, 240.000000, 84.000000
12219, 68.000000, 240.000000, 84.000000
12220, 72.000000, 240.000000, 84.000000
12221, 36.000000, 244.000000, 84.000000
12222, 40.000000, 244.000000, 84.000000
12223, 44.000000, 244.000000, 84.000000
12224, 48.000000, 244.000000, 84.000000
12225, 52.000000, 244.000000, 84.000000
12226, 56.000000, 244.000000, 84.000000
12227, 60.000000, 244.000000, 84.000000
12228, 64.000000, 244.000000, 84.000000
12229, 68.000000, 244.000000, 84.000000
12230, 72.000000, 244.000000, 84.000000
12231, 36.000000, 248.000000, 84.000000
12232, 40.000000, 248.000000, 84.000000
12233, 44.000000, 248.000000, 84.000000
12234, 48.000000, 248.000000, 84.000000
12235, 52.000000, 248.000000, 84.000000
12236, 56.000000, 248.000000, 84.000000
12237, 60.000000, 248.000000, 84.000000
12238, 64.000000, 248.000000, 84.000000
12239, 68.000000, 248.000000, 84.000000
12240, 72.000000, 248.000000, 84.000000
12241, 36.000000, 252.000000, 84.000000
12242, 40.000000, 252.000000, 84.000000
12243, 44.000000, 252.000000, 84.000000
12244, 48.000000, 252.000000, 84.000000
12245, 52.000000, 252.000000, 84.000000
12246, 56.000000, 252.000000, 84.000000
12247, 60.000000, 252.000000, 84.000000
12248, 64.000000, 252.000000, 84.000000
12249, 68.000000, 252.000000, 84.000000
12250, 72.000000, 252.000000, 84.000000
12251, 36.000000, 256.000000, 84.000000
12252, 40.000000, 256.000000, 84.000000
12253, 44.000000, 256.000000, 84.000000
12254, 48.000000, 256.000000, 84.000000
12255, 52.000000, 256.000000, 84.000000
12256, 56.000000, 256.000000, 84.000000
12257, 60.000000, 256.000000, 84.000000
12258, 64.000000, 256.000000, 84.000000
12259, 68.000000, 256.000000, 84.000000
12260, 72.000000, 256.000000, 84.000000
12261, 36.000000, 260.000000, 84.000000
12262, 40.000000, 260.000000, 84.000000
12263, 44.000000, 260.000000, 84.000000
12264, 48.000000, 260.000000, 84.000000
12265, 52.000000, 260.000000, 84.000000
12266, 56.000000, 260.000000, 84.000000
12267, 60.000000, 260.000000, 84.000000
12268, 64.000000, 260.000000, 84.000000
12269, 68.000000, 260.000000, 84.000000
12270, 72.000000, 260.000000, 84.000000
12271, 36.000000, 264.000000, 84.000000
12272, 40.000000, 264.000000, 84.000000
12273, 44.000000, 264.000000, 84.000000
12274, 48.000000, 264.000000, 84.000000
12275, 52.000000, 264.000000, 84.000000
12276, 56.000000, 264.000000, 84.000000
12277, 60.000000, 264.000000, 84.000000
12278, 64.000000, 264.000000, 84.000000
12279, 68.000000, 264.000000, 84.000000
12280, 72.000000, 264.000000, 84.000000
12281, 36.000000, 268.000000, 84.000000
12282, 40.000000, 268.000000, 84.000000
12283, 44.000000, 268.000000, 84.000000
12284, 48.000000, 268.000000, 84.000000
12285, 52.000000, 268.000000, 84.000000
12286, 56.000000, 268.000000, 84.000000
12287, 60.000000, 268.000000, 84.000000
12288, 64.000000, 268.000000, 84.000000
12289, 68.000000, 268.000000, 84.000000
12290, 72.000000, 268.000000, 84.000000
12291, 36.000000, 272.000000, 84.000000
12292, 40.000000, 272.000000, 84.000000
12293, 44.000000, 272.000000, 84.000000
12294, 48.000000, 272.000000, 84.000000
12295, 52.000000, 272.000000, 84.000000
12296, 56.000000, 272.000000, 84.000000
12297, 60.000000, 272.000000, 84.000000
12298, 64.000000, 272.000000, 84.000000
12299, 68.000000, 272.000000, 84.000000
12300, 72.000000, 272.000000, 84.000000
12301, 36.000000, 276.000000, 84.000000
12302, 40.000000, 276.000000, 84.000000
12303, 44.000000, 276.000000, 84.000000
12304, 48.000000, 276.000000, 84.000000
12305, 52.000000, 276.000000, 84.000000
12306, 56.000000, 276.000000, 84.000000
12307, 60.000000, 276.000000, 84.000000
12308, 64.000000, 276.000000, 84.000000
12309, 68.000000, 276.000000, 84.000000
12310, 72.000000, 276.000000, 84.000000
12311, 36.000000, 280.000000, 84.000000
12312, 40.000000, 280.000000, 84.000000
12313, 44.000000, 280.000000, 84.000000
12314, 48.000000, 280.000000, 84.000000
12315, 52.000000, 280.000000, 84.000000
12316, 56.000000, 280.000000, 84.000000
12317, 60.000000, 280.000000, 84.000000
12318, 64.000000, 280.000000, 84.000000
12319, 68.000000, 280.000000, 84.000000
12320, 72.000000, 280.000000, 84.000000
12321, 36.000000, 284.000000, 84.000000
12322, 40.000000, 284.000000, 84.000000
12323, 44.000000, 284.000000, 84.000000
12324, 48.000000, 284.000000, 84.000000
12325, 52.000000, 284.000000, 84.000000
12326, 56.000000, 284.000000, 84.000000
12327, 60.000000, 284.000000, 84.000000
12328, 64.000000, 284.000000, 84.000000
12329, 68.000000, 284.000000, 84.000000
12330, 72.000000, 284.000000, 84.000000
12331, 36.000000, 288.000000, 84.000000
12332, 40.000000, 288.000000, 84.000000
12333, 44.000000, 288.000000, 84.000000
12334, 48.000000, 288.000000, 84.000000
12335, 52.000000, 288.000000, 84.000000
12336, 56.000000, 288.000000, 84.000000
12337, 60.000000, 288.000000, 84.000000
12338, 64.000000, 288.000000, 84.000000
12339, 68.000000, 288.000000, 84.000000
12340, 72.000000, 288.000000, 84.000000
12341, 36.000000, 292.000000, 84.000000
12342, 40.000000, 292.000000, 84.000000
12343, 44.000000, 292.000000, 84.000000
12344, 48.000000, 292.000000, 84.000000
12345, 52.000000, 292.000000, 84.000000
12346, 56.000000, 292.000000, 84.000000
12347, 60.000000, 292.000000, 84.000000
12348, 64.000000, 292.000000, 84.000000
12349, 68.000000, 292.000000, 84.000000
12350, 72.000000, 292.000000, 84.000000
12351, 36.000000, 296.000000, 84.000000
12352, 40.000000, 296.000000, 84.000000
12353, 44.000000, 296.000000, 84.000000
12354, 48.000000, 296.000000, 84.000000
12355, 52.000000, 296.000000, 84.000000
12356, 56.000000, 296.000000, 84.000000
12357, 60.000000, 296.000000, 84.000000
12358, 64.000000, 296.000000, 84.000000
12359, 68.000000, 296.000000, 84.000000
12360, 72.000000, 296.000000, 84.000000
12361, 36.000000, 300.000000, 84.000000
12362, 40.000000, 300.000000, 84.000000
12363, 44.000000, 300.000000, 84.000000
12364, 48.000000, 300.000000, 84.000000
12365, 52.000000, 300.000000, 84.000000
12366, 56.000000, 300.000000, 84.000000
12367, 60.000000, 300.000000, 84.000000
12368, 64.000000, 300.000000, 84.000000
12369, 68.000000, 300.000000, 84.000000
12370, 72.000000, 300.000000, 84.000000
12371, 36.000000, 304.000000, 84.000000
12372, 40.000000, 304.000000, 84.000000
12373, 44.000000, 304.000000, 84.000000
12374, 48.000000, 304.000000, 84.000000
12375, 52.000000, 304.000000, 84.000000
12376, 56.000000, 304.000000, 84.000000
12377, 60.000000, 304.000000, 84.000000
12378, 64.000000, 304.000000, 84.000000
12379, 68.000000, 304.000000, 84.000000
12380, 72.000000, 304.000000, 84.000000
12381, 36.000000, 308.000000, 84.000000
12382, 40.000000, 308.000000, 84.000000
12383, 44.000000, 308.000000, 84.000000
12384, 48.000000, 308.000000, 84.000000
12385, 52.000000, 308.000000, 84.000000
12386, 56.000000, 308.000000, 84.000000
12387, 60.000000, 308.000000, 84.000000
12388, 64.000000, 308.000000, 84.000000
12389, 68.000000, 308.000000, 84.000000
12390, 72.000000, 308.000000, 84.000000
12391, 36.000000, 312.000000, 84.000000
12392, 40.000000, 312.000000, 84.000000
12393, 44.000000, 312.000000, 84.000000
12394, 48.000000, 312.000000, 84.000000
12395, 52.000000, 312.000000, 84.000000
12396, 56.000000, 312.000000, 84.000000
12397, 60.000000, 312.000000, 84.000000
12398, 64.000000, 312.000000, 84.000000
12399, 68.000000, 312.000000, 84.000000
12400, 72.000000, 312.000000, 84.000000
12401, 36.000000, 316.000000, 84.000000
12402, 40.000000, 316.000000, 84.000000
12403, 44.000000, 316.000000, 84.000000
12404, 48.000000, 316.000000, 84.000000
12405, 52.000000, 316.000000, 84.000000
12406, 56.000000, 316.000000, 84.000000
12407, 60.000000, 316.000000, 84.000000
12408, 64.000000, 316.000000, 84.000000
12409, 68.000000, 316.000000, 84.000000
12410, 72.000000, 316.000000, 84.000000
12411, 36.000000, 320.000000, 84.000000
12412, 40.000000, 320.000000, 84.000000
12413, 44.000000, 320.000000, 84.000000
12414, 48.000000, 320.000000, 84.000000
12415, 52.000000, 320.000000, 84.000000
12416, 56.000000, 320.000000, 84.000000
12417, 60.000000, 320.000000, 84.000000
12418, 64.000000, 320.000000, 84.000000
12419, 68.000000, 320.000000, 84.000000
12420, 72.000000, 320.000000, 84.000000
12421, 36.000000, 324.000000, 84.000000
12422, 40.000000, 324.000000, 84.000000
12423, 44.000000, 324.000000, 84.000000
12424, 48.000000, 324.000000, 84.000000
12425, 52.000000, 324.000000, 84.000000
12426, 56.000000, 324.000000, 84.000000
12427, 60.000000, 324.000000, 84.000000
12428, 64.000000, 324.000000, 84.000000
12429, 68.000000, 324.000000, 84.000000
12430, 72.000000, 324.000000, 84.000000
12431, 36.000000, 328.000000, 84.000000
12432, 40.000000, 328.000000, 84.000000
12433, 44.000000, 328.000000, 84.000000
12434, 48.000000, 328.000000, 84.000000
12435, 52.000000, 328.000000, 84.000000
12436, 56.000000, 328.000000, 84.000000
12437, 60.000000, 328.000000, 84.000000
12438, 64.000000, 328.000000, 84.000000
12439, 68.000000, 328.000000, 84.000000
12440, 72.000000, 328.000000, 84.000000
12441, 36.000000, 332.000000, 84.000000
12442, 40.000000, 332.000000, 84.000000
12443, 44.000000, 332.000000, 84.000000
12444, 48.000000, 332.000000, 84.000000
12445, 52.000000, 332.000000, 84.000000
12446, 56.000000, 332.000000, 84.000000
12447, 60.000000, 332.000000, 84.000000
12448, 64.000000, 332.000000, 84.000000
12449, 68.000000, 332.000000, 84.000000
12450, 72.000000, 332.000000, 84.000000
12451, 36.000000, 336.000000, 84.000000
12452, 40.000000, 336.000000, 84.000000
12453, 44.000000, 336.000000, 84.000000
12454, 48.000000, 336.000000, 84.000000
12455, 52.000000, 336.000000, 84.000000
12456, 56.000000, 336.000000, 84.000000
12457, 60.000000, 336.000000, 84.000000
12458, 64.000000, 336.000000, 84.000000
12459, 68.000000, 336.000000, 84.000000
12460, 72.000000, 336.000000, 84.000000
12461, 36.000000, 340.000000, 84.000000
12462, 40.000000, 340.000000, 84.000000
12463, 44.000000, 340.000000, 84.000000
12464, 48.000000, 340.000000, 84.000000
12465, 52.000000, 340.000000, 84.000000
12466, 56.000000, 340.000000, 84.000000
12467, 60.000000, 340.000000, 84.000000
12468, 64.000000, 340.000000, 84.000000
12469, 68.000000, 340.000000, 84.000000
12470, 72.000000, 340.000000, 84.000000
12471, 36.000000, 344.000000, 84.000000
12472, 40.000000, 344.000000, 84.000000
12473, 44.000000, 344.000000, 84.000000
12474, 48.000000, 344.000000, 84.000000
12475, 52.000000, 344.000000, 84.000000
12476, 56.000000, 344.000000, 84.000000
12477, 60.000000, 344.000000, 84.000000
12478, 64.000000, 344.000000, 84.000000
12479, 68.000000, 344.000000, 84.000000
12480, 72.000000, 344.000000, 84.000000
12481, 36.000000, 348.000000, 84.000000
12482, 40.000000, 348.000000, 84.000000
12483, 44.000000, 348.000000, 84.000000
12484, 48.000000, 348.000000, 84.000000
12485, 52.000000, 348.000000, 84.000000
12486, 56.000000, 348.000000, 84.000000
12487, 60.000000, 348.000000, 84.000000
12488, 64.000000, 348.000000, 84.000000
12489, 68.000000, 348.000000, 84.000000
12490, 72.000000, 348.000000, 84.000000
12491, 36.000000, 352.000000, 84.000000
12492, 40.000000, 352.000000, 84.000000
12493, 44.000000, 352.000000, 84.000000
12494, 48.000000, 352.000000, 84.000000
12495, 52.000000, 352.000000, 84.000000
12496, 56.000000, 352.000000, 84.000000
12497, 60.000000, 352.000000, 84.000000
12498, 64.000000, 352.000000, 84.000000
12499, 68.000000, 352.000000, 84.000000
12500, 72.000000, 352.000000, 84.000000
12501, 36.000000, 356.000000, 84.000000
12502, 40.000000, 356.000000, 84.000000
12503, 44.000000, 356.000000, 84.000000
12504, 48.000000, 356.000000, 84.000000
12505, 52.000000, 356.000000, 84.000000
12506, 56.000000, 356.000000, 84.000000
12507, 60.000000, 356.000000, 84.000000
12508, 64.000000, 356.000000, 84.000000
12509, 68.000000, 356.000000, 84.000000
12510, 72.000000, 356.000000, 84.000000
12511, 36.000000, 360.000000, 84.000000
12512, 40.000000, 360.000000, 84.000000
12513, 44.000000, 360.000000, 84.000000
12514, 48.000000, 360.000000, 84.000000
12515, 52.000000, 360.000000, 84.000000
12516, 56.000000, 360.000000, 84.000000
12517, 60.000000, 360.000000, 84.000000
12518, 64.000000, 360.000000, 84.000000
12519, 68.000000, 360.000000, 84.000000
12520, 72.000000, 360.000000, 84.000000
12521, 36.000000, 364.000000, 84.000000
12522, 40.000000, 364.000000, 84.000000
12523, 44.000000, 364.000000, 84.000000
12524, 48.000000, 364.000000, 84.000000
12525, 52.000000, 364.000000, 84.000000
12526, 56.000000, 364.000000, 84.000000
12527, 60.000000, 364.000000, 84.000000
12528, 64.000000, 364.000000, 84.000000
12529, 68.000000, 364.000000, 84.000000
12530, 72.000000, 364.000000, 84.000000
12531, 36.000000, 368.000000, 84.000000
12532, 40.000000, 368.000000, 84.000000
12533, 44.000000, 368.000000, 84.000000
12534, 48.000000, 368.000000, 84.000000
12535, 52.000000, 368.000000, 84.000000
12536, 56.000000, 368.000000, 84.000000
12537, 60.000000, 368.000000, 84.000000
12538, 64.000000, 368.000000, 84.000000
12539, 68.000000, 368.000000, 84.000000
12540, 72.000000, 368.000000, 84.000000
12541, 36.000000, 372.000000, 84.000000
12542, 40.000000, 372.000000, 84.000000
12543, 44.000000, 372.000000, 84.000000
12544, 48.000000, 372.000000, 84.000000
12545, 52.000000, 372.000000, 84.000000
12546, 56.000000, 372.000000, 84.000000
12547, 60.000000, 372.000000, 84.000000
12548, 64.000000, 372.000000, 84.000000
12549, 68.000000, 372.000000, 84.000000
12550, 72.000000, 372.000000, 84.000000
12551, 36.000000, 376.000000, 84.000000
12552, 40.000000, 376.000000, 84.000000
12553, 44.000000, 376.000000, 84.000000
12554, 48.000000, 376.000000, 84.000000
12555, 52.000000, 376.000000, 84.000000
12556, 56.000000, 376.000000, 84.000000
12557, 60.000000, 376.000000, 84.000000
12558, 64.000000, 376.000000, 84.000000
12559, 68.000000, 376.000000, 84.000000
12560, 72.000000, 376.000000, 84.000000
12561, 36.000000, 380.000000, 84.000000
12562, 40.000000, 380.000000, 84.000000
12563, 44.000000, 380.000000, 84.000000
12564, 48.000000, 380.000000, 84.000000
12565, 52.000000, 380.000000, 84.000000
12566, 56.000000, 380.000000, 84.000000
12567, 60.000000, 380.000000, 84.000000
12568, 64.000000, 380.000000, 84.000000
12569, 68.000000, 380.000000, 84.000000
12570, 72.000000, 380.000000, 84.000000
12571, 36.000000, 384.000000, 84.000000
12572, 40.000000, 384.000000, 84.000000
12573, 44.000000, 384.000000, 84.000000
12574, 48.000000, 384.000000, 84.000000
12575, 52.000000, 384.000000, 84.000000
12576, 56.000000, 384.000000, 84.000000
12577, 60.000000, 384.000000, 84.000000
12578, 64.000000, 384.000000, 84.000000
12579, 68.000000, 384.000000, 84.000000
12580, 72.000000, 384.000000, 84.000000
12581, 36.000000, 388.000000, 84.000000
12582, 40.000000, 388.000000, 84.000000
12583, 44.000000, 388.000000, 84.000000
12584, 48.000000, 388.000000, 84.000000
12585, 52.000000, 388.000000, 84.000000
12586, 56.000000, 388.000000, 84.000000
12587, 60.000000, 388.000000, 84.000000
12588, 64.000000, 388.000000, 84.000000
12589, 68.000000, 388.000000, 84.000000
12590, 72.000000, 388.000000, 84.000000
12591, 36.000000, 392.000000, 84.000000
12592, 40.000000, 392.000000, 84.000000
12593, 44.000000, 392.000000, 84.000000
12594, 48.000000, 392.000000, 84.000000
12595, 52.000000, 392.000000, 84.000000
12596, 56.000000, 392.000000, 84.000000
12597, 60.000000, 392.000000, 84.000000
12598, 64.000000, 392.000000, 84.000000
12599, 68.000000, 392.000000, 84.000000
12600, 72.000000, 392.000000, 84.000000
12601, 36.000000, 396.000000, 84.000000
12602, 40.000000, 396.000000, 84.000000
12603, 44.000000, 396.000000, 84.000000
12604, 48.000000, 396.000000, 84.000000
12605, 52.000000, 396.000000, 84.000000
12606, 56.000000, 396.000000, 84.000000
12607, 60.000000, 396.000000, 84.000000
12608, 64.000000, 396.000000, 84.000000
12609, 68.000000, 396.000000, 84.000000
12610, 72.000000, 396.000000, 84.000000
12611, 36.000000, 400.000000, 84.000000
12612, 40.000000, 400.000000, 84.000000
12613, 44.000000, 400.000000, 84.000000
12614, 48.000000, 400.000000, 84.000000
12615, 52.000000, 400.000000, 84.000000
12616, 56.000000, 400.000000, 84.000000
12617, 60.000000, 400.000000, 84.000000
12618, 64.000000, 400.000000, 84.000000
12619, 68.000000, 400.000000, 84.000000
12620, 72.000000, 400.000000, 84.000000
12621, 36.000000, 404.000000, 84.000000
12622, 40.000000, 404.000000, 84.000000
12623, 44.000000, 404.000000, 84.000000
12624, 48.000000, 404.000000, 84.000000
12625, 52.000000, 404.000000, 84.000000
12626, 56.000000, 404.000000, 84.000000
12627, 60.000000, 404.000000, 84.000000
12628, 64.000000, 404.000000, 84.000000
12629, 68.000000, 404.000000, 84.000000
12630, 72.000000, 404.000000, 84.000000
12631, 36.000000, 408.000000, 84.000000
12632, 40.000000, 408.000000, 84.000000
12633, 44.000000, 408.000000, 84.000000
12634, 48.000000, 408.000000, 84.000000
12635, 52.000000, 408.000000, 84.000000
12636, 56.000000, 408.000000, 84.000000
12637, 60.000000, 408.000000, 84.000000
12638, 64.000000, 408.000000, 84.000000
12639, 68.000000, 408.000000, 84.000000
12640, 72.000000, 408.000000, 84.000000
12641, 36.000000, 412.000000, 84.000000
12642, 40.000000, 412.000000, 84.000000
12643, 44.000000, 412.000000, 84.000000
12644, 48.000000, 412.000000, 84.000000
12645, 52.000000, 412.000000, 84.000000
12646, 56.000000, 412.000000, 84.000000
12647, 60.000000, 412.000000, 84.000000
12648, 64.000000, 412.000000, 84.000000
12649, 68.000000, 412.000000, 84.000000
12650, 72.000000, 412.000000, 84.000000
12651, 36.000000, 416.000000, 84.000000
12652, 40.000000, 416.000000, 84.000000
12653, 44.000000, 416.000000, 84.000000
12654, 48.000000, 416.000000, 84.000000
12655, 52.000000, 416.000000, 84.000000
12656, 56.000000, 416.000000, 84.000000
12657, 60.000000, 416.000000, 84.000000
12658, 64.000000, 416.000000, 84.000000
12659, 68.000000, 416.000000, 84.000000
12660, 72.000000, 416.000000, 84.000000
12661, 36.000000, 420.000000, 84.000000
12662, 40.000000, 420.000000, 84.000000
12663, 44.000000, 420.000000, 84.000000
12664, 48.000000, 420.000000, 84.000000
12665, 52.000000, 420.000000, 84.000000
12666, 56.000000, 420.000000, 84.000000
12667, 60.000000, 420.000000, 84.000000
12668, 64.000000, 420.000000, 84.000000
12669, 68.000000, 420.000000, 84.000000
12670, 72.000000, 420.000000, 84.000000
12671, 36.000000, 424.000000, 84.000000
12672, 40.000000, 424.000000, 84.000000
12673, 44.000000, 424.000000, 84.000000
12674, 48.000000, 424.000000, 84.000000
12675, 52.000000, 424.000000, 84.000000
12676, 56.000000, 424.000000, 84.000000
12677, 60.000000, 424.000000, 84.000000
12678, 64.000000, 424.000000, 84.000000
12679, 68.000000, 424.000000, 84.000000
12680, 72.000000, 424.000000, 84.000000
12681, 36.000000, 428.000000, 84.000000
12682, 40.000000, 428.000000, 84.000000
12683, 44.000000, 428.000000, 84.000000
12684, 48.000000, 428.000000, 84.000000
12685, 52.000000, 428.000000, 84.000000
12686, 56.000000, 428.000000, 84.000000
12687, 60.000000, 428.000000, 84.000000
12688, 64.000000, 428.000000, 84.000000
12689, 68.000000, 428.000000, 84.000000
12690, 72.000000, 428.000000, 84.000000
12691, 36.000000, 432.000000, 84.000000
12692, 40.000000, 432.000000, 84.000000
12693, 44.000000, 432.000000, 84.000000
12694, 48.000000, 432.000000, 84.000000
12695, 52.000000, 432.000000, 84.000000
12696, 56.000000, 432.000000, 84.000000
12697, 60.000000, 432.000000, 84.000000
12698, 64.000000, 432.000000, 84.000000
12699, 68.000000, 432.000000, 84.000000
12700, 72.000000, 432.000000, 84.000000
12701, 36.000000, 436.000000, 84.000000
12702, 40.000000, 436.000000, 84.000000
12703, 44.000000, 436.000000, 84.000000
12704, 48.000000, 436.000000, 84.000000
12705, 52.000000, 436.000000, 84.000000
12706, 56.000000, 436.000000, 84.000000
12707, 60.000000, 436.000000, 84.000000
12708, 64.000000, 436.000000, 84.000000
12709, 68.000000, 436.000000, 84.000000
12710, 72.000000, 436.000000, 84.000000
12711, 36.000000, 440.000000, 84.000000
12712, 40.000000, 440.000000, 84.000000
12713, 44.000000, 440.000000, 84.000000
12714, 48.000000, 440.000000, 84.000000
12715, 52.000000, 440.000000, 84.000000
12716, 56.000000, 440.000000, 84.000000
12717, 60.000000, 440.000000, 84.000000
12718, 64.000000, 440.000000, 84.000000
12719, 68.000000, 440.000000, 84.000000
12720, 72.000000, 440.000000, 84.000000
12721, 36.000000, 444.000000, 84.000000
12722, 40.000000, 444.000000, 84.000000
12723, 44.000000, 444.000000, 84.000000
12724, 48.000000, 444.000000, 84.000000
12725, 52.000000, 444.000000, 84.000000
12726, 56.000000, 444.000000, 84.000000
12727, 60.000000, 444.000000, 84.000000
12728, 64.000000, 444.000000, 84.000000
12729, 68.000000, 444.000000, 84.000000
12730, 72.000000, 444.000000, 84.000000
12731, 36.000000, 448.000000, 84.000000
12732, 40.000000, 448.000000, 84.000000
12733, 44.000000, 448.000000, 84.000000
12734, 48.000000, 448.000000, 84.000000
12735, 52.000000, 448.000000, 84.000000
12736, 56.000000, 448.000000, 84.000000
12737, 60.000000, 448.000000, 84.000000
12738, 64.000000, 448.000000, 84.000000
12739, 68.000000, 448.000000, 84.000000
12740, 72.000000, 448.000000, 84.000000
12741, 36.000000, 452.000000, 84.000000
12742, 40.000000, 452.000000, 84.000000
12743, 44.000000, 452.000000, 84.000000
12744, 48.000000, 452.000000, 84.000000
12745, 52.000000, 452.000000, 84.000000
12746, 56.000000, 452.000000, 84.000000
12747, 60.000000, 452.000000, 84.000000
12748, 64.000000, 452.000000, 84.000000
12749, 68.000000, 452.000000, 84.000000
12750, 72.000000, 452.000000, 84.000000
12751, 36.000000, 456.000000, 84.000000
12752, 40.000000, 456.000000, 84.000000
12753, 44.000000, 456.000000, 84.000000
12754, 48.000000, 456.000000, 84.000000
12755, 52.000000, 456.000000, 84.000000
12756, 56.000000, 456.000000, 84.000000
12757, 60.000000, 456.000000, 84.000000
12758, 64.000000, 456.000000, 84.000000
12759, 68.000000, 456.000000, 84.000000
12760, 72.000000, 456.000000, 84.000000
12761, 36.000000, 228.000000, 88.000000
12762, 40.000000, 228.000000, 88.000000
12763, 44.000000, 228.000000, 88.000000
12764, 48.000000, 228.000000, 88.000000
12765, 52.000000, 228.000000, 88.000000
12766, 56.000000, 228.000000, 88.000000
12767, 60.000000, 228.000000, 88.000000
12768, 64.000000, 228.000000, 88.000000
12769, 68.000000, 228.000000, 88.000000
12770, 72.000000, 228.000000, 88.000000
12771, 36.000000, 232.000000, 88.000000
12772, 40.000000, 232.000000, 88.000000
12773, 44.000000, 232.000000, 88.000000
12774, 48.000000, 232.000000, 88.000000
12775, 52.000000, 232.000000, 88.000000
12776, 56.000000, 232.000000, 88.000000
12777, 60.000000, 232.000000, 88.000000
12778, 64.000000, 232.000000, 88.000000
12779, 68.000000, 232.000000, 88.000000
12780, 72.000000, 232.000000, 88.000000
12781, 36.000000, 236.000000, 88.000000
12782, 40.000000, 236.000000, 88.000000
12783, 44.000000, 236.000000, 88.000000
12784, 48.000000, 236.000000, 88.000000
12785, 52.000000, 236.000000, 88.000000
12786, 56.000000, 236.000000, 88.000000
12787, 60.000000, 236.000000, 88.000000
12788, 64.000000, 236.000000, 88.000000
12789, 68.000000, 236.000000, 88.000000
12790, 72.000000, 236.000000, 88.000000
12791, 36.000000, 240.000000, 88.000000
12792, 40.000000, 240.000000, 88.000000
12793, 44.000000, 240.000000, 88.000000
12794, 48.000000, 240.000000, 88.000000
12795, 52.000000, 240.000000, 88.000000
12796, 56.000000, 240.000000, 88.000000
12797, 60.000000, 240.000000, 88.000000
12798, 64.000000, 240.000000, 88.000000
12799, 68.000000, 240.000000, 88.000000
12800, 72.000000, 240.000000, 88.000000
12801, 36.000000, 244.000000, 88.000000
12802, 40.000000, 244.000000, 88.000000
12803, 44.000000, 244.000000, 88.000000
12804, 48.000000, 244.000000, 88.000000
12805, 52.000000, 244.000000, 88.000000
12806, 56.000000, 244.000000, 88.000000
12807, 60.000000, 244.000000, 88.000000
12808, 64.000000, 244.000000, 88.000000
12809, 68.000000, 244.000000, 88.000000
12810, 72.000000, 244.000000, 88.000000
12811, 36.000000, 248.000000, 88.000000
12812, 40.000000, 248.000000, 88.000000
12813, 44.000000, 248.000000, 88.000000
12814, 48.000000, 248.000000, 88.000000
12815, 52.000000, 248.000000, 88.000000
12816, 56.000000, 248.000000, 88.000000
12817, 60.000000, 248.000000, 88.000000
12818, 64.000000, 248.000000, 88.000000
12819, 68.000000, 248.000000, 88.000000
12820, 72.000000, 248.000000, 88.000000
12821, 36.000000, 252.000000, 88.000000
12822, 40.000000, 252.000000, 88.000000
12823, 44.000000, 252.000000, 88.000000
12824, 48.000000, 252.000000, 88.000000
12825, 52.000000, 252.000000, 88.000000
12826, 56.000000, 252.000000, 88.000000
12827, 60.000000, 252.000000, 88.000000
12828, 64.000000, 252.000000, 88.000000
12829, 68.000000, 252.000000, 88.000000
12830, 72.000000, 252.000000, 88.000000
12831, 36.000000, 256.000000, 88.000000
12832, 40.000000, 256.000000, 88.000000
12833, 44.000000, 256.000000, 88.000000
12834, 48.000000, 256.000000, 88.000000
12835, 52.000000, 256.000000, 88.000000
12836, 56.000000, 256.000000, 88.000000
12837, 60.000000, 256.000000, 88.000000
12838, 64.000000, 256.000000, 88.000000
12839, 68.000000, 256.000000, 88.000000
12840, 72.000000, 256.000000, 88.000000
12841, 36.000000, 260.000000, 88.000000
12842, 40.000000, 260.000000, 88.000000
12843, 44.000000, 260.000000, 88.000000
12844, 48.000000, 260.000000, 88.000000
12845, 52.000000, 260.000000, 88.000000
12846, 56.000000, 260.000000, 88.000000
12847, 60.000000, 260.000000, 88.000000
12848, 64.000000, 260.000000, 88.000000
12849, 68.000000, 260.000000, 88.000000
12850, 72.000000, 260.000000, 88.000000
12851, 36.000000, 264.000000, 88.000000
12852, 40.000000, 264.000000, 88.000000
12853, 44.000000, 264.000000, 88.000000
12854, 48.000000, 264.000000, 88.000000
12855, 52.000000, 264.000000, 88.000000
12856, 56.000000, 264.000000, 88.000000
12857, 60.000000, 264.000000, 88.000000
12858, 64.000000, 264.000000, 88.000000
12859, 68.000000, 264.000000, 88.000000
12860, 72.000000, 264.000000, 88.000000
12861, 36.000000, 268.000000, 88.000000
12862, 40.000000, 268.000000, 88.000000
12863, 44.000000, 268.000000, 88.000000
12864, 48.000000, 268.000000, 88.000000
12865, 52.000000, 268.000000, 88.000000
12866, 56.000000, 268.000000, 88.000000
12867, 60.000000, 268.000000, 88.000000
12868, 64.000000, 268.000000, 88.000000
12869, 68.000000, 268.000000, 88.000000
12870, 72.000000, 268.000000, 88.000000
12871, 36.000000, 272.000000, 88.000000
12872, 40.000000, 272.000000, 88.000000
12873, 44.000000, 272.000000, 88.000000
12874, 48.000000, 272.000000, 88.000000
12875, 52.000000, 272.000000, 88.000000
12876, 56.000000, 272.000000, 88.000000
12877, 60.000000, 272.000000, 88.000000
12878, 64.000000, 272.000000, 88.000000
12879, 68.000000, 272.000000, 88.000000
12880, 72.000000, 272.000000, 88.000000
12881, 36.000000, 276.000000, 88.000000
12882, 40.000000, 276.000000, 88.000000
12883, 44.000000, 276.000000, 88.000000
12884, 48.000000, 276.000000, 88.000000
12885, 52.000000, 276.000000, 88.000000
12886, 56.000000, 276.000000, 88.000000
12887, 60.000000, 276.000000, 88.000000
12888, 64.000000, 276.000000, 88.000000
12889, 68.000000, 276.000000, 88.000000
12890, 72.000000, 276.000000, 88.000000
12891, 36.000000, 280.000000, 88.000000
12892, 40.000000, 280.000000, 88.000000
12893, 44.000000, 280.000000, 88.000000
12894, 48.000000, 280.000000, 88.000000
12895, 52.000000, 280.000000, 88.000000
12896, 56.000000, 280.000000, 88.000000
12897, 60.000000, 280.000000, 88.000000
12898, 64.000000, 280.000000, 88.000000
12899, 68.000000, 280.000000, 88.000000
12900, 72.000000, 280.000000, 88.000000
12901, 36.000000, 284.000000, 88.000000
12902, 40.000000, 284.000000, 88.000000
12903, 44.000000, 284.000000, 88.000000
12904, 48.000000, 284.000000, 88.000000
12905, 52.000000, 284.000000, 88.000000
12906, 56.000000, 284.000000, 88.000000
12907, 60.000000, 284.000000, 88.000000
12908, 64.000000, 284.000000, 88.000000
12909, 68.000000, 284.000000, 88.000000
12910, 72.000000, 284.000000, 88.000000
12911, 36.000000, 288.000000, 88.000000
12912, 40.000000, 288.000000, 88.000000
12913, 44.000000, 288.000000, 88.000000
12914, 48.000000, 288.000000, 88.000000
12915, 52.000000, 288.000000, 88.000000
12916, 56.000000, 288.000000, 88.000000
12917, 60.000000, 288.000000, 88.000000
12918, 64.000000, 288.000000, 88.000000
12919, 68.000000, 288.000000, 88.000000
12920, 72.000000, 288.000000, 88.000000
12921, 36.000000, 292.000000, 88.000000
12922, 40.000000, 292.000000, 88.000000
12923, 44.000000, 292.000000, 88.000000
12924, 48.000000, 292.000000, 88.000000
12925, 52.000000, 292.000000, 88.000000
12926, 56.000000, 292.000000, 88.000000
12927, 60.000000, 292.000000, 88.000000
12928, 64.000000, 292.000000, 88.000000
12929, 68.000000, 292.000000, 88.000000
12930, 72.000000, 292.000000, 88.000000
12931, 36.000000, 296.000000, 88.000000
12932, 40.000000, 296.000000, 88.000000
12933, 44.000000, 296.000000, 88.000000
12934, 48.000000, 296.000000, 88.000000
12935, 52.000000, 296.000000, 88.000000
12936, 56.000000, 296.000000, 88.000000
12937, 60.000000, 296.000000, 88.000000
12938, 64.000000, 296.000000, 88.000000
12939, 68.000000, 296.000000, 88.000000
12940, 72.000000, 296.000000, 88.000000
12941, 36.000000, 300.000000, 88.000000
12942, 40.000000, 300.000000, 88.000000
12943, 44.000000, 300.000000, 88.000000
12944, 48.000000, 300.000000, 88.000000
12945, 52.000000, 300.000000, 88.000000
12946, 56.000000, 300.000000, 88.000000
12947, 60.000000, 300.000000, 88.000000
12948, 64.000000, 300.000000, 88.000000
12949, 68.000000, 300.000000, 88.000000
12950, 72.000000, 300.000000, 88.000000
12951, 36.000000, 304.000000, 88.000000
12952, 40.000000, 304.000000, 88.000000
12953, 44.000000, 304.000000, 88.000000
12954, 48.000000, 304.000000, 88.000000
12955, 52.000000, 304.000000, 88.000000
12956, 56.000000, 304.000000, 88.000000
12957, 60.000000, 304.000000, 88.000000
12958, 64.000000, 304.000000, 88.000000
12959, 68.000000, 304.000000, 88.000000
12960, 72.000000, 304.000000, 88.000000
12961, 36.000000, 308.000000, 88.000000
12962, 40.000000, 308.000000, 88.000000
12963, 44.000000, 308.000000, 88.000000
12964, 48.000000, 308.000000, 88.000000
12965, 52.000000, 308.000000, 88.000000
12966, 56.000000, 308.000000, 88.000000
12967, 60.000000, 308.000000, 88.000000
12968, 64.000000, 308.000000, 88.000000
12969, 68.000000, 308.000000, 88.000000
12970, 72.000000, 308.000000, 88.000000
12971, 36.000000, 312.000000, 88.000000
12972, 40.000000, 312.000000, 88.000000
12973, 44.000000, 312.000000, 88.000000
12974, 48.000000, 312.000000, 88.000000
12975, 52.000000, 312.000000, 88.000000
12976, 56.000000, 312.000000, 88.000000
12977, 60.000000, 312.000000, 88.000000
12978, 64.000000, 312.000000, 88.000000
12979, 68.000000, 312.000000, 88.000000
12980, 72.000000, 312.000000, 88.000000
12981, 36.000000, 316.000000, 88.000000
12982, 40.000000, 316.000000, 88.000000
12983, 44.000000, 316.000000, 88.000000
12984, 48.000000, 316.000000, 88.000000
12985, 52.000000, 316.000000, 88.000000
12986, 56.000000, 316.000000, 88.000000
12987, 60.000000, 316.000000, 88.000000
12988, 64.000000, 316.000000, 88.000000
12989, 68.000000, 316.000000, 88.000000
12990, 72.000000, 316.000000, 88.000000
12991, 36.000000, 320.000000, 88.000000
12992, 40.000000, 320.000000, 88.000000
12993, 44.000000, 320.000000, 88.000000
12994, 48.000000, 320.000000, 88.000000
12995, 52.000000, 320.000000, 88.000000
12996, 56.000000, 320.000000, 88.000000
12997, 60.000000, 320.000000, 88.000000
12998, 64.000000, 320.000000, 88.000000
12999, 68.000000, 320.000000, 88.000000
13000, 72.000000, 320.000000, 88.000000
13001, 36.000000, 324.000000, 88.000000
13002, 40.000000, 324.000000, 88.000000
13003, 44.000000, 324.000000, 88.000000
13004, 48.000000, 324.000000, 88.000000
13005, 52.000000, 324.000000, 88.000000
13006, 56.000000, 324.000000, 88.000000
13007, 60.000000, 324.000000, 88.000000
13008, 64.000000, 324.000000, 88.000000
13009, 68.000000, 324.000000, 88.000000
13010, 72.000000, 324.000000, 88.000000
13011, 36.000000, 328.000000, 88.000000
13012, 40.000000, 328.000000, 88.000000
13013, 44.000000, 328.000000, 88.000000
13014, 48.000000, 328.000000, 88.000000
13015, 52.000000, 328.000000, 88.000000
13016, 56.000000, 328.000000, 88.000000
13017, 60.000000, 328.000000, 88.000000
13018, 64.000000, 328.000000, 88.000000
13019, 68.000000, 328.000000, 88.000000
13020, 72.000000, 328.000000, 88.000000
13021, 36.000000, 332.000000, 88.000000
13022, 40.000000, 332.000000, 88.000000
13023, 44.000000, 332.000000, 88.000000
13024, 48.000000, 332.000000, 88.000000
13025, 52.000000, 332.000000, 88.000000
13026, 56.000000, 332.000000, 88.000000
13027, 60.000000, 332.000000, 88.000000
13028, 64.000000, 332.000000, 88.000000
13029, 68.000000, 332.000000, 88.000000
13030, 72.000000, 332.000000, 88.000000
13031, 36.000000, 336.000000, 88.000000
13032, 40.000000, 336.000000, 88.000000
13033, 44.000000, 336.000000, 88.000000
13034, 48.000000, 336.000000, 88.000000
13035, 52.000000, 336.000000, 88.000000
13036, 56.000000, 336.000000, 88.000000
13037, 60.000000, 336.000000, 88.000000
13038, 64.000000, 336.000000, 88.000000
13039, 68.000000, 336.000000, 88.000000
13040, 72.000000, 336.000000, 88.000000
13041, 36.000000, 340.000000, 88.000000
13042, 40.000000, 340.000000, 88.000000
13043, 44.000000, 340.000000, 88.000000
13044, 48.000000, 340.000000, 88.000000
13045, 52.000000, 340.000000, 88.000000
13046, 56.000000, 340.000000, 88.000000
13047, 60.000000, 340.000000, 88.000000
13048, 64.000000, 340.000000, 88.000000
13049, 68.000000, 340.000000, 88.000000
13050, 72.000000, 340.000000, 88.000000
13051, 36.000000, 344.000000, 88.000000
13052, 40.000000, 344.000000, 88.000000
13053, 44.000000, 344.000000, 88.000000
13054, 48.000000, 344.000000, 88.000000
13055, 52.000000, 344.000000, 88.000000
13056, 56.000000, 344.000000, 88.000000
13057, 60.000000, 344.000000, 88.000000
13058, 64.000000, 344.000000, 88.000000
13059, 68.000000, 344.000000, 88.000000
13060, 72.000000, 344.000000, 88.000000
13061, 36.000000, 348.000000, 88.000000
13062, 40.000000, 348.000000, 88.000000
13063, 44.000000, 348.000000, 88.000000
13064, 48.000000, 348.000000, 88.000000
13065, 52.000000, 348.000000, 88.000000
13066, 56.000000, 348.000000, 88.000000
13067, 60.000000, 348.000000, 88.000000
13068, 64.000000, 348.000000, 88.000000
13069, 68.000000, 348.000000, 88.000000
13070, 72.000000, 348.000000, 88.000000
13071, 36.000000, 352.000000, 88.000000
13072, 40.000000, 352.000000, 88.000000
13073, 44.000000, 352.000000, 88.000000
13074, 48.000000, 352.000000, 88.000000
13075, 52.000000, 352.000000, 88.000000
13076, 56.000000, 352.000000, 88.000000
13077, 60.000000, 352.000000, 88.000000
13078, 64.000000, 352.000000, 88.000000
13079, 68.000000, 352.000000, 88.000000
13080, 72.000000, 352.000000, 88.000000
13081, 36.000000, 356.000000, 88.000000
13082, 40.000000, 356.000000, 88.000000
13083, 44.000000, 356.000000, 88.000000
13084, 48.000000, 356.000000, 88.000000
13085, 52.000000, 356.000000, 88.000000
13086, 56.000000, 356.000000, 88.000000
13087, 60.000000, 356.000000, 88.000000
13088, 64.000000, 356.000000, 88.000000
13089, 68.000000, 356.000000, 88.000000
13090, 72.000000, 356.000000, 88.000000
13091, 36.000000, 360.000000, 88.000000
13092, 40.000000, 360.000000, 88.000000
13093, 44.000000, 360.000000, 88.000000
13094, 48.000000, 360.000000, 88.000000
13095, 52.000000, 360.000000, 88.000000
13096, 56.000000, 360.000000, 88.000000
13097, 60.000000, 360.000000, 88.000000
13098, 64.000000, 360.000000, 88.000000
13099, 68.000000, 360.000000, 88.000000
13100, 72.000000, 360.000000, 88.000000
13101, 36.000000, 364.000000, 88.000000
13102, 40.000000, 364.000000, 88.000000
13103, 44.000000, 364.000000, 88.000000
13104, 48.000000, 364.000000, 88.000000
13105, 52.000000, 364.000000, 88.000000
13106, 56.000000, 364.000000, 88.000000
13107, 60.000000, 364.000000, 88.000000
13108, 64.000000, 364.000000, 88.000000
13109, 68.000000, 364.000000, 88.000000
13110, 72.000000, 364.000000, 88.000000
13111, 36.000000, 368.000000, 88.000000
13112, 40.000000, 368.000000, 88.000000
13113, 44.000000, 368.000000, 88.000000
13114, 48.000000, 368.000000, 88.000000
13115, 52.000000, 368.000000, 88.000000
13116, 56.000000, 368.000000, 88.000000
13117, 60.000000, 368.000000, 88.000000
13118, 64.000000, 368.000000, 88.000000
13119, 68.000000, 368.000000, 88.000000
13120, 72.000000, 368.000000, 88.000000
13121, 36.000000, 372.000000, 88.000000
13122, 40.000000, 372.000000, 88.000000
13123, 44.000000, 372.000000, 88.000000
13124, 48.000000, 372.000000, 88.000000
13125, 52.000000, 372.000000, 88.000000
13126, 56.000000, 372.000000, 88.000000
13127, 60.000000, 372.000000, 88.000000
13128, 64.000000, 372.000000, 88.000000
13129, 68.000000, 372.000000, 88.000000
13130, 72.000000, 372.000000, 88.000000
13131, 36.000000, 376.000000, 88.000000
13132, 40.000000, 376.000000, 88.000000
13133, 44.000000, 376.000000, 88.000000
13134, 48.000000, 376.000000, 88.000000
13135, 52.000000, 376.000000, 88.000000
13136, 56.000000, 376.000000, 88.000000
13137, 60.000000, 376.000000, 88.000000
13138, 64.000000, 376.000000, 88.000000
13139, 68.000000, 376.000000, 88.000000
13140, 72.000000, 376.000000, 88.000000
13141, 36.000000, 380.000000, 88.000000
13142, 40.000000, 380.000000, 88.000000
13143, 44.000000, 380.000000, 88.000000
13144, 48.000000, 380.000000, 88.000000
13145, 52.000000, 380.000000, 88.000000
13146, 56.000000, 380.000000, 88.000000
13147, 60.000000, 380.000000, 88.000000
13148, 64.000000, 380.000000, 88.000000
13149, 68.000000, 380.000000, 88.000000
13150, 72.000000, 380.000000, 88.000000
13151, 36.000000, 384.000000, 88.000000
13152, 40.000000, 384.000000, 88.000000
13153, 44.000000, 384.000000, 88.000000
13154, 48.000000, 384.000000, 88.000000
13155, 52.000000, 384.000000, 88.000000
13156, 56.000000, 384.000000, 88.000000
13157, 60.000000, 384.000000, 88.000000
13158, 64.000000, 384.000000, 88.000000
13159, 68.000000, 384.000000, 88.000000
13160, 72.000000, 384.000000, 88.000000
13161, 36.000000, 388.000000, 88.000000
13162, 40.000000, 388.000000, 88.000000
13163, 44.000000, 388.000000, 88.000000
13164, 48.000000, 388.000000, 88.000000
13165, 52.000000, 388.000000, 88.000000
13166, 56.000000, 388.000000, 88.000000
13167, 60.000000, 388.000000, 88.000000
13168, 64.000000, 388.000000, 88.000000
13169, 68.000000, 388.000000, 88.000000
13170, 72.000000, 388.000000, 88.000000
13171, 36.000000, 392.000000, 88.000000
13172, 40.000000, 392.000000, 88.000000
13173, 44.000000, 392.000000, 88.000000
13174, 48.000000, 392.000000, 88.000000
13175, 52.000000, 392.000000, 88.000000
13176, 56.000000, 392.000000, 88.000000
13177, 60.000000, 392.000000, 88.000000
13178, 64.000000, 392.000000, 88.000000
13179, 68.000000, 392.000000, 88.000000
13180, 72.000000, 392.000000, 88.000000
13181, 36.000000, 396.000000, 88.000000
13182, 40.000000, 396.000000, 88.000000
13183, 44.000000, 396.000000, 88.000000
13184, 48.000000, 396.000000, 88.000000
13185, 52.000000, 396.000000, 88.000000
13186, 56.000000, 396.000000, 88.000000
13187, 60.000000, 396.000000, 88.000000
13188, 64.000000, 396.000000, 88.000000
13189, 68.000000, 396.000000, 88.000000
13190, 72.000000, 396.000000, 88.000000
13191, 36.000000, 400.000000, 88.000000
13192, 40.000000, 400.000000, 88.000000
13193, 44.000000, 400.000000, 88.000000
13194, 48.000000, 400.000000, 88.000000
13195, 52.000000, 400.000000, 88.000000
13196, 56.000000, 400.000000, 88.000000
13197, 60.000000, 400.000000, 88.000000
13198, 64.000000, 400.000000, 88.000000
13199, 68.000000, 400.000000, 88.000000
13200, 72.000000, 400.000000, 88.000000
13201, 36.000000, 404.000000, 88.000000
13202, 40.000000, 404.000000, 88.000000
13203, 44.000000, 404.000000, 88.000000
13204, 48.000000, 404.000000, 88.000000
13205, 52.000000, 404.000000, 88.000000
13206, 56.000000, 404.000000, 88.000000
13207, 60.000000, 404.000000, 88.000000
13208, 64.000000, 404.000000, 88.000000
13209, 68.000000, 404.000000, 88.000000
13210, 72.000000, 404.000000, 88.000000
13211, 36.000000, 408.000000, 88.000000
13212, 40.000000, 408.000000, 88.000000
13213, 44.000000, 408.000000, 88.000000
13214, 48.000000, 408.000000, 88.000000
13215, 52.000000, 408.000000, 88.000000
13216, 56.000000, 408.000000, 88.000000
13217, 60.000000, 408.000000, 88.000000
13218, 64.000000, 408.000000, 88.000000
13219, 68.000000, 408.000000, 88.000000
13220, 72.000000, 408.000000, 88.000000
13221, 36.000000, 412.000000, 88.000000
13222, 40.000000, 412.000000, 88.000000
13223, 44.000000, 412.000000, 88.000000
13224, 48.000000, 412.000000, 88.000000
13225, 52.000000, 412.000000, 88.000000
13226, 56.000000, 412.000000, 88.000000
13227, 60.000000, 412.000000, 88.000000
13228, 64.000000, 412.000000, 88.000000
13229, 68.000000, 412.000000, 88.000000
13230, 72.000000, 412.000000, 88.000000
13231, 36.000000, 416.000000, 88.000000
13232, 40.000000, 416.000000, 88.000000
13233, 44.000000, 416.000000, 88.000000
13234, 48.000000, 416.000000, 88.000000
13235, 52.000000, 416.000000, 88.000000
13236, 56.000000, 416.000000, 88.000000
13237, 60.000000, 416.000000, 88.000000
13238, 64.000000, 416.000000, 88.000000
13239, 68.000000, 416.000000, 88.000000
13240, 72.000000, 416.000000, 88.000000
13241, 36.000000, 420.000000, 88.000000
13242, 40.000000, 420.000000, 88.000000
13243, 44.000000, 420.000000, 88.000000
13244, 48.000000, 420.000000, 88.000000
13245, 52.000000, 420.000000, 88.000000
13246, 56.000000, 420.000000, 88.000000
13247, 60.000000, 420.000000, 88.000000
13248, 64.000000, 420.000000, 88.000000
13249, 68.000000, 420.000000, 88.000000
13250, 72.000000, 420.000000, 88.000000
13251, 36.000000, 424.000000, 88.000000
13252, 40.000000, 424.000000, 88.000000
13253, 44.000000, 424.000000, 88.000000
13254, 48.000000, 424.000000, 88.000000
13255, 52.000000, 424.000000, 88.000000
13256, 56.000000, 424.000000, 88.000000
13257, 60.000000, 424.000000, 88.000000
13258, 64.000000, 424.000000, 88.000000
13259, 68.000000, 424.000000, 88.000000
13260, 72.000000, 424.000000, 88.000000
13261, 36.000000, 428.000000, 88.000000
13262, 40.000000, 428.000000, 88.000000
13263, 44.000000, 428.000000, 88.000000
13264, 48.000000, 428.000000, 88.000000
13265, 52.000000, 428.000000, 88.000000
13266, 56.000000, 428.000000, 88.000000
13267, 60.000000, 428.000000, 88.000000
13268, 64.000000, 428.000000, 88.000000
13269, 68.000000, 428.000000, 88.000000
13270, 72.000000, 428.000000, 88.000000
13271, 36.000000, 432.000000, 88.000000
13272, 40.000000, 432.000000, 88.000000
13273, 44.000000, 432.000000, 88.000000
13274, 48.000000, 432.000000, 88.000000
13275, 52.000000, 432.000000, 88.000000
13276, 56.000000, 432.000000, 88.000000
13277, 60.000000, 432.000000, 88.000000
13278, 64.000000, 432.000000, 88.000000
13279, 68.000000, 432.000000, 88.000000
13280, 72.000000, 432.000000, 88.000000
13281, 36.000000, 436.000000, 88.000000
13282, 40.000000, 436.000000, 88.000000
13283, 44.000000, 436.000000, 88.000000
13284, 48.000000, 436.000000, 88.000000
13285, 52.000000, 436.000000, 88.000000
13286, 56.000000, 436.000000, 88.000000
13287, 60.000000, 436.000000, 88.000000
13288, 64.000000, 436.000000, 88.000000
13289, 68.000000, 436.000000, 88.000000
13290, 72.000000, 436.000000, 88.000000
13291, 36.000000, 440.000000, 88.000000
13292, 40.000000, 440.000000, 88.000000
13293, 44.000000, 440.000000, 88.000000
13294, 48.000000, 440.000000, 88.000000
13295, 52.000000, 440.000000, 88.000000
13296, 56.000000, 440.000000, 88.000000
13297, 60.000000, 440.000000, 88.000000
13298, 64.000000, 440.000000, 88.000000
13299, 68.000000, 440.000000, 88.000000
13300, 72.000000, 440.000000, 88.000000
13301, 36.000000, 444.000000, 88.000000
13302, 40.000000, 444.000000, 88.000000
13303, 44.000000, 444.000000, 88.000000
13304, 48.000000, 444.000000, 88.000000
13305, 52.000000, 444.000000, 88.000000
13306, 56.000000, 444.000000, 88.000000
13307, 60.000000, 444.000000, 88.000000
13308, 64.000000, 444.000000, 88.000000
13309, 68.000000, 444.000000, 88.000000
13310, 72.000000, 444.000000, 88.000000
13311, 36.000000, 448.000000, 88.000000
13312, 40.000000, 448.000000, 88.000000
13313, 44.000000, 448.000000, 88.000000
13314, 48.000000, 448.000000, 88.000000
13315, 52.000000, 448.000000, 88.000000
13316, 56.000000, 448.000000, 88.000000
13317, 60.000000, 448.000000, 88.000000
13318, 64.000000, 448.000000, 88.000000
13319, 68.000000, 448.000000, 88.000000
13320, 72.000000, 448.000000, 88.000000
13321, 36.000000, 452.000000, 88.000000
13322, 40.000000, 452.000000, 88.000000
13323, 44.000000, 452.000000, 88.000000
13324, 48.000000, 452.000000, 88.000000
13325, 52.000000, 452.000000, 88.000000
13326, 56.000000, 452.000000, 88.000000
13327, 60.000000, 452.000000, 88.000000
13328, 64.000000, 452.000000, 88.000000
13329, 68.000000, 452.000000, 88.000000
13330, 72.000000, 452.000000, 88.000000
13331, 36.000000, 456.000000, 88.000000
13332, 40.000000, 456.000000, 88.000000
13333, 44.000000, 456.000000, 88.000000
13334, 48.000000, 456.000000, 88.000000
13335, 52.000000, 456.000000, 88.000000
13336, 56.000000, 456.000000, 88.000000
13337, 60.000000, 456.000000, 88.000000
13338, 64.000000, 456.000000, 88.000000
13339, 68.000000, 456.000000, 88.000000
13340, 72.000000, 456.000000, 88.000000
13341, 36.000000, 228.000000, 92.000000
13342, 40.000000, 228.000000, 92.000000
13343, 44.000000, 228.000000, 92.000000
13344, 48.000000, 228.000000, 92.000000
13345, 52.000000, 228.000000, 92.000000
13346, 56.000000, 228.000000, 92.000000
13347, 60.000000, 228.000000, 92.000000
13348, 64.000000, 228.000000, 92.000000
13349, 68.000000, 228.000000, 92.000000
13350, 72.000000, 228.000000, 92.000000
13351, 36.000000, 232.000000, 92.000000
13352, 40.000000, 232.000000, 92.000000
13353, 44.000000, 232.000000, 92.000000
13354, 48.000000, 232.000000, 92.000000
13355, 52.000000, 232.000000, 92.000000
13356, 56.000000, 232.000000, 92.000000
13357, 60.000000, 232.000000, 92.000000
13358, 64.000000, 232.000000, 92.000000
13359, 68.000000, 232.000000, 92.000000
13360, 72.000000, 232.000000, 92.000000
13361, 36.000000, 236.000000, 92.000000
13362, 40.000000, 236.000000, 92.000000
13363, 44.000000, 236.000000, 92.000000
13364, 48.000000, 236.000000, 92.000000
13365, 52.000000, 236.000000, 92.000000
13366, 56.000000, 236.000000, 92.000000
13367, 60.000000, 236.000000, 92.000000
13368, 64.000000, 236.000000, 92.000000
13369, 68.000000, 236.000000, 92.000000
13370, 72.000000, 236.000000, 92.000000
13371, 36.000000, 240.000000, 92.000000
13372, 40.000000, 240.000000, 92.000000
13373, 44.000000, 240.000000, 92.000000
13374, 48.000000, 240.000000, 92.000000
13375, 52.000000, 240.000000, 92.000000
13376, 56.000000, 240.000000, 92.000000
13377, 60.000000, 240.000000, 92.000000
13378, 64.000000, 240.000000, 92.000000
13379, 68.000000, 240.000000, 92.000000
13380, 72.000000, 240.000000, 92.000000
13381, 36.000000, 244.000000, 92.000000
13382, 40.000000, 244.000000, 92.000000
13383, 44.000000, 244.000000, 92.000000
13384, 48.000000, 244.000000, 92.000000
13385, 52.000000, 244.000000, 92.000000
13386, 56.000000, 244.000000, 92.000000
13387, 60.000000, 244.000000, 92.000000
13388, 64.000000, 244.000000, 92.000000
13389, 68.000000, 244.000000, 92.000000
13390, 72.000000, 244.000000, 92.000000
13391, 36.000000, 248.000000, 92.000000
13392, 40.000000, 248.000000, 92.000000
13393, 44.000000, 248.000000, 92.000000
13394, 48.000000, 248.000000, 92.000000
13395, 52.000000, 248.000000, 92.000000
13396, 56.000000, 248.000000, 92.000000
13397, 60.000000, 248.000000, 92.000000
13398, 64.000000, 248.000000, 92.000000
13399, 68.000000, 248.000000, 92.000000
13400, 72.000000, 248.000000, 92.000000
13401, 36.000000, 252.000000, 92.000000
13402, 40.000000, 252.000000, 92.000000
13403, 44.000000, 252.000000, 92.000000
13404, 48.000000, 252.000000, 92.000000
13405, 52.000000, 252.000000, 92.000000
13406, 56.000000, 252.000000, 92.000000
13407, 60.000000, 252.000000, 92.000000
13408, 64.000000, 252.000000, 92.000000
13409, 68.000000, 252.000000, 92.000000
13410, 72.000000, 252.000000, 92.000000
13411, 36.000000, 256.000000, 92.000000
13412, 40.000000, 256.000000, 92.000000
13413, 44.000000, 256.000000, 92.000000
13414, 48.000000, 256.000000, 92.000000
13415, 52.000000, 256.000000, 92.000000
13416, 56.000000, 256.000000, 92.000000
13417, 60.000000, 256.000000, 92.000000
13418, 64.000000, 256.000000, 92.000000
13419, 68.000000, 256.000000, 92.000000
13420, 72.000000, 256.000000, 92.000000
13421, 36.000000, 260.000000, 92.000000
13422, 40.000000, 260.000000, 92.000000
13423, 44.000000, 260.000000, 92.000000
13424, 48.000000, 260.000000, 92.000000
13425, 52.000000, 260.000000, 92.000000
13426, 56.000000, 260.000000, 92.000000
13427, 60.000000, 260.000000, 92.000000
13428, 64.000000, 260.000000, 92.000000
13429, 68.000000, 260.000000, 92.000000
13430, 72.000000, 260.000000, 92.000000
13431, 36.000000, 264.000000, 92.000000
13432, 40.000000, 264.000000, 92.000000
13433, 44.000000, 264.000000, 92.000000
13434, 48.000000, 264.000000, 92.000000
13435, 52.000000, 264.000000, 92.000000
13436, 56.000000, 264.000000, 92.000000
13437, 60.000000, 264.000000, 92.000000
13438, 64.000000, 264.000000, 92.000000
13439, 68.000000, 264.000000, 92.000000
13440, 72.000000, 264.000000, 92.000000
13441, 36.000000, 268.000000, 92.000000
13442, 40.000000, 268.000000, 92.000000
13443, 44.000000, 268.000000, 92.000000
13444, 48.000000, 268.000000, 92.000000
13445, 52.000000, 268.000000, 92.000000
13446, 56.000000, 268.000000, 92.000000
13447, 60.000000, 268.000000, 92.000000
13448, 64.000000, 268.000000, 92.000000
13449, 68.000000, 268.000000, 92.000000
13450, 72.000000, 268.000000, 92.000000
13451, 36.000000, 272.000000, 92.000000
13452, 40.000000, 272.000000, 92.000000
13453, 44.000000, 272.000000, 92.000000
13454, 48.000000, 272.000000, 92.000000
13455, 52.000000, 272.000000, 92.000000
13456, 56.000000, 272.000000, 92.000000
13457, 60.000000, 272.000000, 92.000000
13458, 64.000000, 272.000000, 92.000000
13459, 68.000000, 272.000000, 92.000000
13460, 72.000000, 272.000000, 92.000000
13461, 36.000000, 276.000000, 92.000000
13462, 40.000000, 276.000000, 92.000000
13463, 44.000000, 276.000000, 92.000000
13464, 48.000000, 276.000000, 92.000000
13465, 52.000000, 276.000000, 92.000000
13466, 56.000000, 276.000000, 92.000000
13467, 60.000000, 276.000000, 92.000000
13468, 64.000000, 276.000000, 92.000000
13469, 68.000000, 276.000000, 92.000000
13470, 72.000000, 276.000000, 92.000000
13471, 36.000000, 280.000000, 92.000000
13472, 40.000000, 280.000000, 92.000000
13473, 44.000000, 280.000000, 92.000000
13474, 48.000000, 280.000000, 92.000000
13475, 52.000000, 280.000000, 92.000000
13476, 56.000000, 280.000000, 92.000000
13477, 60.000000, 280.000000, 92.000000
13478, 64.000000, 280.000000, 92.000000
13479, 68.000000, 280.000000, 92.000000
13480, 72.000000, 280.000000, 92.000000
13481, 36.000000, 284.000000, 92.000000
13482, 40.000000, 284.000000, 92.000000
13483, 44.000000, 284.000000, 92.000000
13484, 48.000000, 284.000000, 92.000000
13485, 52.000000, 284.000000, 92.000000
13486, 56.000000, 284.000000, 92.000000
13487, 60.000000, 284.000000, 92.000000
13488, 64.000000, 284.000000, 92.000000
13489, 68.000000, 284.000000, 92.000000
13490, 72.000000, 284.000000, 92.000000
13491, 36.000000, 288.000000, 92.000000
13492, 40.000000, 288.000000, 92.000000
13493, 44.000000, 288.000000, 92.000000
13494, 48.000000, 288.000000, 92.000000
13495, 52.000000, 288.000000, 92.000000
13496, 56.000000, 288.000000, 92.000000
13497, 60.000000, 288.000000, 92.000000
13498, 64.000000, 288.000000, 92.000000
13499, 68.000000, 288.000000, 92.000000
13500, 72.000000, 288.000000, 92.000000
13501, 36.000000, 292.000000, 92.000000
13502, 40.000000, 292.000000, 92.000000
13503, 44.000000, 292.000000, 92.000000
13504, 48.000000, 292.000000, 92.000000
13505, 52.000000, 292.000000, 92.000000
13506, 56.000000, 292.000000, 92.000000
13507, 60.000000, 292.000000, 92.000000
13508, 64.000000, 292.000000, 92.000000
13509, 68.000000, 292.000000, 92.000000
13510, 72.000000, 292.000000, 92.000000
13511, 36.000000, 296.000000, 92.000000
13512, 40.000000, 296.000000, 92.000000
13513, 44.000000, 296.000000, 92.000000
13514, 48.000000, 296.000000, 92.000000
13515, 52.000000, 296.000000, 92.000000
13516, 56.000000, 296.000000, 92.000000
13517, 60.000000, 296.000000, 92.000000
13518, 64.000000, 296.000000, 92.000000
13519, 68.000000, 296.000000, 92.000000
13520, 72.000000, 296.000000, 92.000000
13521, 36.000000, 300.000000, 92.000000
13522, 40.000000, 300.000000, 92.000000
13523, 44.000000, 300.000000, 92.000000
13524, 48.000000, 300.000000, 92.000000
13525, 52.000000, 300.000000, 92.000000
13526, 56.000000, 300.000000, 92.000000
13527, 60.000000, 300.000000, 92.000000
13528, 64.000000, 300.000000, 92.000000
13529, 68.000000, 300.000000, 92.000000
13530, 72.000000, 300.000000, 92.000000
13531, 36.000000, 304.000000, 92.000000
13532, 40.000000, 304.000000, 92.000000
13533, 44.000000, 304.000000, 92.000000
13534, 48.000000, 304.000000, 92.000000
13535, 52.000000, 304.000000, 92.000000
13536, 56.000000, 304.000000, 92.000000
13537, 60.000000, 304.000000, 92.000000
13538, 64.000000, 304.000000, 92.000000
13539, 68.000000, 304.000000, 92.000000
13540, 72.000000, 304.000000, 92.000000
13541, 36.000000, 308.000000, 92.000000
13542, 40.000000, 308.000000, 92.000000
13543, 44.000000, 308.000000, 92.000000
13544, 48.000000, 308.000000, 92.000000
13545, 52.000000, 308.000000, 92.000000
13546, 56.000000, 308.000000, 92.000000
13547, 60.000000, 308.000000, 92.000000
13548, 64.000000, 308.000000, 92.000000
13549, 68.000000, 308.000000, 92.000000
13550, 72.000000, 308.000000, 92.000000
13551, 36.000000, 312.000000, 92.000000
13552, 40.000000, 312.000000, 92.000000
13553, 44.000000, 312.000000, 92.000000
13554, 48.000000, 312.000000, 92.000000
13555, 52.000000, 312.000000, 92.000000
13556, 56.000000, 312.000000, 92.000000
13557, 60.000000, 312.000000, 92.000000
13558, 64.000000, 312.000000, 92.000000
13559, 68.000000, 312.000000, 92.000000
13560, 72.000000, 312.000000, 92.000000
13561, 36.000000, 316.000000, 92.000000
13562, 40.000000, 316.000000, 92.000000
13563, 44.000000, 316.000000, 92.000000
13564, 48.000000, 316.000000, 92.000000
13565, 52.000000, 316.000000, 92.000000
13566, 56.000000, 316.000000, 92.000000
13567, 60.000000, 316.000000, 92.000000
13568, 64.000000, 316.000000, 92.000000
13569, 68.000000, 316.000000, 92.000000
13570, 72.000000, 316.000000, 92.000000
13571, 36.000000, 320.000000, 92.000000
13572, 40.000000, 320.000000, 92.000000
13573, 44.000000, 320.000000, 92.000000
13574, 48.000000, 320.000000, 92.000000
13575, 52.000000, 320.000000, 92.000000
13576, 56.000000, 320.000000, 92.000000
13577, 60.000000, 320.000000, 92.000000
13578, 64.000000, 320.000000, 92.000000
13579, 68.000000, 320.000000, 92.000000
13580, 72.000000, 320.000000, 92.000000
13581, 36.000000, 324.000000, 92.000000
13582, 40.000000, 324.000000, 92.000000
13583, 44.000000, 324.000000, 92.000000
13584, 48.000000, 324.000000, 92.000000
13585, 52.000000, 324.000000, 92.000000
13586, 56.000000, 324.000000, 92.000000
13587, 60.000000, 324.000000, 92.000000
13588, 64.000000, 324.000000, 92.000000
13589, 68.000000, 324.000000, 92.000000
13590, 72.000000, 324.000000, 92.000000
13591, 36.000000, 328.000000, 92.000000
13592, 40.000000, 328.000000, 92.000000
13593, 44.000000, 328.000000, 92.000000
13594, 48.000000, 328.000000, 92.000000
13595, 52.000000, 328.000000, 92.000000
13596, 56.000000, 328.000000, 92.000000
13597, 60.000000, 328.000000, 92.000000
13598, 64.000000, 328.000000, 92.000000
13599, 68.000000, 328.000000, 92.000000
13600, 72.000000, 328.000000, 92.000000
13601, 36.000000, 332.000000, 92.000000
13602, 40.000000, 332.000000, 92.000000
13603, 44.000000, 332.000000, 92.000000
13604, 48.000000, 332.000000, 92.000000
13605, 52.000000, 332.000000, 92.000000
13606, 56.000000, 332.000000, 92.000000
13607, 60.000000, 332.000000, 92.000000
13608, 64.000000, 332.000000, 92.000000
13609, 68.000000, 332.000000, 92.000000
13610, 72.000000, 332.000000, 92.000000
13611, 36.000000, 336.000000, 92.000000
13612, 40.000000, 336.000000, 92.000000
13613, 44.000000, 336.000000, 92.000000
13614, 48.000000, 336.000000, 92.000000
13615, 52.000000, 336.000000, 92.000000
13616, 56.000000, 336.000000, 92.000000
13617, 60.000000, 336.000000, 92.000000
13618, 64.000000, 336.000000, 92.000000
13619, 68.000000, 336.000000, 92.000000
13620, 72.000000, 336.000000, 92.000000
13621, 36.000000, 340.000000, 92.000000
13622, 40.000000, 340.000000, 92.000000
13623, 44.000000, 340.000000, 92.000000
13624, 48.000000, 340.000000, 92.000000
13625, 52.000000, 340.000000, 92.000000
13626, 56.000000, 340.000000, 92.000000
13627, 60.000000, 340.000000, 92.000000
13628, 64.000000, 340.000000, 92.000000
13629, 68.000000, 340.000000, 92.000000
13630, 72.000000, 340.000000, 92.000000
13631, 36.000000, 344.000000, 92.000000
13632, 40.000000, 344.000000, 92.000000
13633, 44.000000, 344.000000, 92.000000
13634, 48.000000, 344.000000, 92.000000
13635, 52.000000, 344.000000, 92.000000
13636, 56.000000, 344.000000, 92.000000
13637, 60.000000, 344.000000, 92.000000
13638, 64.000000, 344.000000, 92.000000
13639, 68.000000, 344.000000, 92.000000
13640, 72.000000, 344.000000, 92.000000
13641, 36.000000, 348.000000, 92.000000
13642, 40.000000, 348.000000, 92.000000
13643, 44.000000, 348.000000, 92.000000
13644, 48.000000, 348.000000, 92.000000
13645, 52.000000, 348.000000, 92.000000
13646, 56.000000, 348.000000, 92.000000
13647, 60.000000, 348.000000, 92.000000
13648, 64.000000, 348.000000, 92.000000
13649, 68.000000, 348.000000, 92.000000
13650, 72.000000, 348.000000, 92.000000
13651, 36.000000, 352.000000, 92.000000
13652, 40.000000, 352.000000, 92.000000
13653, 44.000000, 352.000000, 92.000000
13654, 48.000000, 352.000000, 92.000000
13655, 52.000000, 352.000000, 92.000000
13656, 56.000000, 352.000000, 92.000000
13657, 60.000000, 352.000000, 92.000000
13658, 64.000000, 352.000000, 92.000000
13659, 68.000000, 352.000000, 92.000000
13660, 72.000000, 352.000000, 92.000000
13661, 36.000000, 356.000000, 92.000000
13662, 40.000000, 356.000000, 92.000000
13663, 44.000000, 356.000000, 92.000000
13664, 48.000000, 356.000000, 92.000000
13665, 52.000000, 356.000000, 92.000000
13666, 56.000000, 356.000000, 92.000000
13667, 60.000000, 356.000000, 92.000000
13668, 64.000000, 356.000000, 92.000000
13669, 68.000000, 356.000000, 92.000000
13670, 72.000000, 356.000000, 92.000000
13671, 36.000000, 360.000000, 92.000000
13672, 40.000000, 360.000000, 92.000000
13673, 44.000000, 360.000000, 92.000000
13674, 48.000000, 360.000000, 92.000000
13675, 52.000000, 360.000000, 92.000000
13676, 56.000000, 360.000000, 92.000000
13677, 60.000000, 360.000000, 92.000000
13678, 64.000000, 360.000000, 92.000000
13679, 68.000000, 360.000000, 92.000000
13680, 72.000000, 360.000000, 92.000000
13681, 36.000000, 364.000000, 92.000000
13682, 40.000000, 364.000000, 92.000000
13683, 44.000000, 364.000000, 92.000000
13684, 48.000000, 364.000000, 92.000000
13685, 52.000000, 364.000000, 92.000000
13686, 56.000000, 364.000000, 92.000000
13687, 60.000000, 364.000000, 92.000000
13688, 64.000000, 364.000000, 92.000000
13689, 68.000000, 364.000000, 92.000000
13690, 72.000000, 364.000000, 92.000000
13691, 36.000000, 368.000000, 92.000000
13692, 40.000000, 368.000000, 92.000000
13693, 44.000000, 368.000000, 92.000000
13694, 48.000000, 368.000000, 92.000000
13695, 52.000000, 368.000000, 92.000000
13696, 56.000000, 368.000000, 92.000000
13697, 60.000000, 368.000000, 92.000000
13698, 64.000000, 368.000000, 92.000000
13699, 68.000000, 368.000000, 92.000000
13700, 72.000000, 368.000000, 92.000000
13701, 36.000000, 372.000000, 92.000000
13702, 40.000000, 372.000000, 92.000000
13703, 44.000000, 372.000000, 92.000000
13704, 48.000000, 372.000000, 92.000000
13705, 52.000000, 372.000000, 92.000000
13706, 56.000000, 372.000000, 92.000000
13707, 60.000000, 372.000000, 92.000000
13708, 64.000000, 372.000000, 92.000000
13709, 68.000000, 372.000000, 92.000000
13710, 72.000000, 372.000000, 92.000000
13711, 36.000000, 376.000000, 92.000000
13712, 40.000000, 376.000000, 92.000000
13713, 44.000000, 376.000000, 92.000000
13714, 48.000000, 376.000000, 92.000000
13715, 52.000000, 376.000000, 92.000000
13716, 56.000000, 376.000000, 92.000000
13717, 60.000000, 376.000000, 92.000000
13718, 64.000000, 376.000000, 92.000000
13719, 68.000000, 376.000000, 92.000000
13720, 72.000000, 376.000000, 92.000000
13721, 36.000000, 380.000000, 92.000000
13722, 40.000000, 380.000000, 92.000000
13723, 44.000000, 380.000000, 92.000000
13724, 48.000000, 380.000000, 92.000000
13725, 52.000000, 380.000000, 92.000000
13726, 56.000000, 380.000000, 92.000000
13727, 60.000000, 380.000000, 92.000000
13728, 64.000000, 380.000000, 92.000000
13729, 68.000000, 380.000000, 92.000000
13730, 72.000000, 380.000000, 92.000000
13731, 36.000000, 384.000000, 92.000000
13732, 40.000000, 384.000000, 92.000000
13733, 44.000000, 384.000000, 92.000000
13734, 48.000000, 384.000000, 92.000000
13735, 52.000000, 384.000000, 92.000000
13736, 56.000000, 384.000000, 92.000000
13737, 60.000000, 384.000000, 92.000000
13738, 64.000000, 384.000000, 92.000000
13739, 68.000000, 384.000000, 92.000000
13740, 72.000000, 384.000000, 92.000000
13741, 36.000000, 388.000000, 92.000000
13742, 40.000000, 388.000000, 92.000000
13743, 44.000000, 388.000000, 92.000000
13744, 48.000000, 388.000000, 92.000000
13745, 52.000000, 388.000000, 92.000000
13746, 56.000000, 388.000000, 92.000000
13747, 60.000000, 388.000000, 92.000000
13748, 64.000000, 388.000000, 92.000000
13749, 68.000000, 388.000000, 92.000000
13750, 72.000000, 388.000000, 92.000000
13751, 36.000000, 392.000000, 92.000000
13752, 40.000000, 392.000000, 92.000000
13753, 44.000000, 392.000000, 92.000000
13754, 48.000000, 392.000000, 92.000000
13755, 52.000000, 392.000000, 92.000000
13756, 56.000000, 392.000000, 92.000000
13757, 60.000000, 392.000000, 92.000000
13758, 64.000000, 392.000000, 92.000000
13759, 68.000000, 392.000000, 92.000000
13760, 72.000000, 392.000000, 92.000000
13761, 36.000000, 396.000000, 92.000000
13762, 40.000000, 396.000000, 92.000000
13763, 44.000000, 396.000000, 92.000000
13764, 48.000000, 396.000000, 92.000000
13765, 52.000000, 396.000000, 92.000000
13766, 56.000000, 396.000000, 92.000000
13767, 60.000000, 396.000000, 92.000000
13768, 64.000000, 396.000000, 92.000000
13769, 68.000000, 396.000000, 92.000000
13770, 72.000000, 396.000000, 92.000000
13771, 36.000000, 400.000000, 92.000000
13772, 40.000000, 400.000000, 92.000000
13773, 44.000000, 400.000000, 92.000000
13774, 48.000000, 400.000000, 92.000000
13775, 52.000000, 400.000000, 92.000000
13776, 56.000000, 400.000000, 92.000000
13777, 60.000000, 400.000000, 92.000000
13778, 64.000000, 400.000000, 92.000000
13779, 68.000000, 400.000000, 92.000000
13780, 72.000000, 400.000000, 92.000000
13781, 36.000000, 404.000000, 92.000000
13782, 40.000000, 404.000000, 92.000000
13783, 44.000000, 404.000000, 92.000000
13784, 48.000000, 404.000000, 92.000000
13785, 52.000000, 404.000000, 92.000000
13786, 56.000000, 404.000000, 92.000000
13787, 60.000000, 404.000000, 92.000000
13788, 64.000000, 404.000000, 92.000000
13789, 68.000000, 404.000000, 92.000000
13790, 72.000000, 404.000000, 92.000000
13791, 36.000000, 408.000000, 92.000000
13792, 40.000000, 408.000000, 92.000000
13793, 44.000000, 408.000000, 92.000000
13794, 48.000000, 408.000000, 92.000000
13795, 52.000000, 408.000000, 92.000000
13796, 56.000000, 408.000000, 92.000000
13797, 60.000000, 408.000000, 92.000000
13798, 64.000000, 408.000000, 92.000000
13799, 68.000000, 408.000000, 92.000000
13800, 72.000000, 408.000000, 92.000000
13801, 36.000000, 412.000000, 92.000000
13802, 40.000000, 412.000000, 92.000000
13803, 44.000000, 412.000000, 92.000000
13804, 48.000000, 412.000000, 92.000000
13805, 52.000000, 412.000000, 92.000000
13806, 56.000000, 412.000000, 92.000000
13807, 60.000000, 412.000000, 92.000000
13808, 64.000000, 412.000000, 92.000000
13809, 68.000000, 412.000000, 92.000000
13810, 72.000000, 412.000000, 92.000000
13811, 36.000000, 416.000000, 92.000000
13812, 40.000000, 416.000000, 92.000000
13813, 44.000000, 416.000000, 92.000000
13814, 48.000000, 416.000000, 92.000000
13815, 52.000000, 416.000000, 92.000000
13816, 56.000000, 416.000000, 92.000000
13817, 60.000000, 416.000000, 92.000000
13818, 64.000000, 416.000000, 92.000000
13819, 68.000000, 416.000000, 92.000000
13820, 72.000000, 416.000000, 92.000000
13821, 36.000000, 420.000000, 92.000000
13822, 40.000000, 420.000000, 92.000000
13823, 44.000000, 420.000000, 92.000000
13824, 48.000000, 420.000000, 92.000000
13825, 52.000000, 420.000000, 92.000000
13826, 56.000000, 420.000000, 92.000000
13827, 60.000000, 420.000000, 92.000000
13828, 64.000000, 420.000000, 92.000000
13829, 68.000000, 420.000000, 92.000000
13830, 72.000000, 420.000000, 92.000000
13831, 36.000000, 424.000000, 92.000000
13832, 40.000000, 424.000000, 92.000000
13833, 44.000000, 424.000000, 92.000000
13834, 48.000000, 424.000000, 92.000000
13835, 52.000000, 424.000000, 92.000000
13836, 56.000000, 424.000000, 92.000000
13837, 60.000000, 424.000000, 92.000000
13838, 64.000000, 424.000000, 92.000000
13839, 68.000000, 424.000000, 92.000000
13840, 72.000000, 424.000000, 92.000000
13841, 36.000000, 428.000000, 92.000000
13842, 40.000000, 428.000000, 92.000000
13843, 44.000000, 428.000000, 92.000000
13844, 48.000000, 428.000000, 92.000000
13845, 52.000000, 428.000000, 92.000000
13846, 56.000000, 428.000000, 92.000000
13847, 60.000000, 428.000000, 92.000000
13848, 64.000000, 428.000000, 92.000000
13849, 68.000000, 428.000000, 92.000000
13850, 72.000000, 428.000000, 92.000000
13851, 36.000000, 432.000000, 92.000000
13852, 40.000000, 432.000000, 92.000000
13853, 44.000000, 432.000000, 92.000000
13854, 48.000000, 432.000000, 92.000000
13855, 52.000000, 432.000000, 92.000000
13856, 56.000000, 432.000000, 92.000000
13857, 60.000000, 432.000000, 92.000000
13858, 64.000000, 432.000000, 92.000000
13859, 68.000000, 432.000000, 92.000000
13860, 72.000000, 432.000000, 92.000000
13861, 36.000000, 436.000000, 92.000000
13862, 40.000000, 436.000000, 92.000000
13863, 44.000000, 436.000000, 92.000000
13864, 48.000000, 436.000000, 92.000000
13865, 52.000000, 436.000000, 92.000000
13866, 56.000000, 436.000000, 92.000000
13867, 60.000000, 436.000000, 92.000000
13868, 64.000000, 436.000000, 92.000000
13869, 68.000000, 436.000000, 92.000000
13870, 72.000000, 436.000000, 92.000000
13871, 36.000000, 440.000000, 92.000000
13872, 40.000000, 440.000000, 92.000000
13873, 44.000000, 440.000000, 92.000000
13874, 48.000000, 440.000000, 92.000000
13875, 52.000000, 440.000000, 92.000000
13876, 56.000000, 440.000000, 92.000000
13877, 60.000000, 440.000000, 92.000000
13878, 64.000000, 440.000000, 92.000000
13879, 68.000000, 440.000000, 92.000000
13880, 72.000000, 440.000000, 92.000000
13881, 36.000000, 444.000000, 92.000000
13882, 40.000000, 444.000000, 92.000000
13883, 44.000000, 444.000000, 92.000000
13884, 48.000000, 444.000000, 92.000000
13885, 52.000000, 444.000000, 92.000000
13886, 56.000000, 444.000000, 92.000000
13887, 60.000000, 444.000000, 92.000000
13888, 64.000000, 444.000000, 92.000000
13889, 68.000000, 444.000000, 92.000000
13890, 72.000000, 444.000000, 92.000000
13891, 36.000000, 448.000000, 92.000000
13892, 40.000000, 448.000000, 92.000000
13893, 44.000000, 448.000000, 92.000000
13894, 48.000000, 448.000000, 92.000000
13895, 52.000000, 448.000000, 92.000000
13896, 56.000000, 448.000000, 92.000000
13897, 60.000000, 448.000000, 92.000000
13898, 64.000000, 448.000000, 92.000000
13899, 68.000000, 448.000000, 92.000000
13900, 72.000000, 448.000000, 92.000000
13901, 36.000000, 452.000000, 92.000000
13902, 40.000000, 452.000000, 92.000000
13903, 44.000000, 452.000000, 92.000000
13904, 48.000000, 452.000000, 92.000000
13905, 52.000000, 452.000000, 92.000000
13906, 56.000000, 452.000000, 92.000000
13907, 60.000000, 452.000000, 92.000000
13908, 64.000000, 452.000000, 92.000000
13909, 68.000000, 452.000000, 92.000000
13910, 72.000000, 452.000000, 92.000000
13911, 36.000000, 456.000000, 92.000000
13912, 40.000000, 456.000000, 92.000000
13913, 44.000000, 456.000000, 92.000000
13914, 48.000000, 456.000000, 92.000000
13915, 52.000000, 456.000000, 92.000000
13916, 56.000000, 456.000000, 92.000000
13917, 60.000000, 456.000000, 92.000000
13918, 64.000000, 456.000000, 92.000000
13919, 68.000000, 456.000000, 92.000000
13920, 72.000000, 456.000000, 92.000000
13921, 36.000000, 228.000000, 96.000000
13922, 40.000000, 228.000000, 96.000000
13923, 44.000000, 228.000000, 96.000000
13924, 48.000000, 228.000000, 96.000000
13925, 52.000000, 228.000000, 96.000000
13926, 56.000000, 228.000000, 96.000000
13927, 60.000000, 228.000000, 96.000000
13928, 64.000000, 228.000000, 96.000000
13929, 68.000000, 228.000000, 96.000000
13930, 72.000000, 228.000000, 96.000000
13931, 36.000000, 232.000000, 96.000000
13932, 40.000000, 232.000000, 96.000000
13933, 44.000000, 232.000000, 96.000000
13934, 48.000000, 232.000000, 96.000000
13935, 52.000000, 232.000000, 96.000000
13936, 56.000000, 232.000000, 96.000000
13937, 60.000000, 232.000000, 96.000000
13938, 64.000000, 232.000000, 96.000000
13939, 68.000000, 232.000000, 96.000000
13940, 72.000000, 232.000000, 96.000000
13941, 36.000000, 236.000000, 96.000000
13942, 40.000000, 236.000000, 96.000000
13943, 44.000000, 236.000000, 96.000000
13944, 48.000000, 236.000000, 96.000000
13945, 52.000000, 236.000000, 96.000000
13946, 56.000000, 236.000000, 96.000000
13947, 60.000000, 236.000000, 96.000000
13948, 64.000000, 236.000000, 96.000000
13949, 68.000000, 236.000000, 96.000000
13950, 72.000000, 236.000000, 96.000000
13951, 36.000000, 240.000000, 96.000000
13952, 40.000000, 240.000000, 96.000000
13953, 44.000000, 240.000000, 96.000000
13954, 48.000000, 240.000000, 96.000000
13955, 52.000000, 240.000000, 96.000000
13956, 56.000000, 240.000000, 96.000000
13957, 60.000000, 240.000000, 96.000000
13958, 64.000000, 240.000000, 96.000000
13959, 68.000000, 240.000000, 96.000000
13960, 72.000000, 240.000000, 96.000000
13961, 36.000000, 244.000000, 96.000000
13962, 40.000000, 244.000000, 96.000000
13963, 44.000000, 244.000000, 96.000000
13964, 48.000000, 244.000000, 96.000000
13965, 52.000000, 244.000000, 96.000000
13966, 56.000000, 244.000000, 96.000000
13967, 60.000000, 244.000000, 96.000000
13968, 64.000000, 244.000000, 96.000000
13969, 68.000000, 244.000000, 96.000000
13970, 72.000000, 244.000000, 96.000000
13971, 36.000000, 248.000000, 96.000000
13972, 40.000000, 248.000000, 96.000000
13973, 44.000000, 248.000000, 96.000000
13974, 48.000000, 248.000000, 96.000000
13975, 52.000000, 248.000000, 96.000000
13976, 56.000000, 248.000000, 96.000000
13977, 60.000000, 248.000000, 96.000000
13978, 64.000000, 248.000000, 96.000000
13979, 68.000000, 248.000000, 96.000000
13980, 72.000000, 248.000000, 96.000000
13981, 36.000000, 252.000000, 96.000000
13982, 40.000000, 252.000000, 96.000000
13983, 44.000000, 252.000000, 96.000000
13984, 48.000000, 252.000000, 96.000000
13985, 52.000000, 252.000000, 96.000000
13986, 56.000000, 252.000000, 96.000000
13987, 60.000000, 252.000000, 96.000000
13988, 64.000000, 252.000000, 96.000000
13989, 68.000000, 252.000000, 96.000000
13990, 72.000000, 252.000000, 96.000000
13991, 36.000000, 256.000000, 96.000000
13992, 40.000000, 256.000000, 96.000000
13993, 44.000000, 256.000000, 96.000000
13994, 48.000000, 256.000000, 96.000000
13995, 52.000000, 256.000000, 96.000000
13996, 56.000000, 256.000000, 96.000000
13997, 60.000000, 256.000000, 96.000000
13998, 64.000000, 256.000000, 96.000000
13999, 68.000000, 256.000000, 96.000000
14000, 72.000000, 256.000000, 96.000000
14001, 36.000000, 260.000000, 96.000000
14002, 40.000000, 260.000000, 96.000000
14003, 44.000000, 260.000000, 96.000000
14004, 48.000000, 260.000000, 96.000000
14005, 52.000000, 260.000000, 96.000000
14006, 56.000000, 260.000000, 96.000000
14007, 60.000000, 260.000000, 96.000000
14008, 64.000000, 260.000000, 96.000000
14009, 68.000000, 260.000000, 96.000000
14010, 72.000000, 260.000000, 96.000000
14011, 36.000000, 264.000000, 96.000000
14012, 40.000000, 264.000000, 96.000000
14013, 44.000000, 264.000000, 96.000000
14014, 48.000000, 264.000000, 96.000000
14015, 52.000000, 264.000000, 96.000000
14016, 56.000000, 264.000000, 96.000000
14017, 60.000000, 264.000000, 96.000000
14018, 64.000000, 264.000000, 96.000000
14019, 68.000000, 264.000000, 96.000000
14020, 72.000000, 264.000000, 96.000000
14021, 36.000000, 268.000000, 96.000000
14022, 40.000000, 268.000000, 96.000000
14023, 44.000000, 268.000000, 96.000000
14024, 48.000000, 268.000000, 96.000000
14025, 52.000000, 268.000000, 96.000000
14026, 56.000000, 268.000000, 96.000000
14027, 60.000000, 268.000000, 96.000000
14028, 64.000000, 268.000000, 96.000000
14029, 68.000000, 268.000000, 96.000000
14030, 72.000000, 268.000000, 96.000000
14031, 36.000000, 272.000000, 96.000000
14032, 40.000000, 272.000000, 96.000000
14033, 44.000000, 272.000000, 96.000000
14034, 48.000000, 272.000000, 96.000000
14035, 52.000000, 272.000000, 96.000000
14036, 56.000000, 272.000000, 96.000000
14037, 60.000000, 272.000000, 96.000000
14038, 64.000000, 272.000000, 96.000000
14039, 68.000000, 272.000000, 96.000000
14040, 72.000000, 272.000000, 96.000000
14041, 36.000000, 276.000000, 96.000000
14042, 40.000000, 276.000000, 96.000000
14043, 44.000000, 276.000000, 96.000000
14044, 48.000000, 276.000000, 96.000000
14045, 52.000000, 276.000000, 96.000000
14046, 56.000000, 276.000000, 96.000000
14047, 60.000000, 276.000000, 96.000000
14048, 64.000000, 276.000000, 96.000000
14049, 68.000000, 276.000000, 96.000000
14050, 72.000000, 276.000000, 96.000000
14051, 36.000000, 280.000000, 96.000000
14052, 40.000000, 280.000000, 96.000000
14053, 44.000000, 280.000000, 96.000000
14054, 48.000000, 280.000000, 96.000000
14055, 52.000000, 280.000000, 96.000000
14056, 56.000000, 280.000000, 96.000000
14057, 60.000000, 280.000000, 96.000000
14058, 64.000000, 280.000000, 96.000000
14059, 68.000000, 280.000000, 96.000000
14060, 72.000000, 280.000000, 96.000000
14061, 36.000000, 284.000000, 96.000000
14062, 40.000000, 284.000000, 96.000000
14063, 44.000000, 284.000000, 96.000000
14064, 48.000000, 284.000000, 96.000000
14065, 52.000000, 284.000000, 96.000000
14066, 56.000000, 284.000000, 96.000000
14067, 60.000000, 284.000000, 96.000000
14068, 64.000000, 284.000000, 96.000000
14069, 68.000000, 284.000000, 96.000000
14070, 72.000000, 284.000000, 96.000000
14071, 36.000000, 288.000000, 96.000000
14072, 40.000000, 288.000000, 96.000000
14073, 44.000000, 288.000000, 96.000000
14074, 48.000000, 288.000000, 96.000000
14075, 52.000000, 288.000000, 96.000000
14076, 56.000000, 288.000000, 96.000000
14077, 60.000000, 288.000000, 96.000000
14078, 64.000000, 288.000000, 96.000000
14079, 68.000000, 288.000000, 96.000000
14080, 72.000000, 288.000000, 96.000000
14081, 36.000000, 292.000000, 96.000000
14082, 40.000000, 292.000000, 96.000000
14083, 44.000000, 292.000000, 96.000000
14084, 48.000000, 292.000000, 96.000000
14085, 52.000000, 292.000000, 96.000000
14086, 56.000000, 292.000000, 96.000000
14087, 60.000000, 292.000000, 96.000000
14088, 64.000000, 292.000000, 96.000000
14089, 68.000000, 292.000000, 96.000000
14090, 72.000000, 292.000000, 96.000000
14091, 36.000000, 296.000000, 96.000000
14092, 40.000000, 296.000000, 96.000000
14093, 44.000000, 296.000000, 96.000000
14094, 48.000000, 296.000000, 96.000000
14095, 52.000000, 296.000000, 96.000000
14096, 56.000000, 296.000000, 96.000000
14097, 60.000000, 296.000000, 96.000000
14098, 64.000000, 296.000000, 96.000000
14099, 68.000000, 296.000000, 96.000000
14100, 72.000000, 296.000000, 96.000000
14101, 36.000000, 300.000000, 96.000000
14102, 40.000000, 300.000000, 96.000000
14103, 44.000000, 300.000000, 96.000000
14104, 48.000000, 300.000000, 96.000000
14105, 52.000000, 300.000000, 96.000000
14106, 56.000000, 300.000000, 96.000000
14107, 60.000000, 300.000000, 96.000000
14108, 64.000000, 300.000000, 96.000000
14109, 68.000000, 300.000000, 96.000000
14110, 72.000000, 300.000000, 96.000000
14111, 36.000000, 304.000000, 96.000000
14112, 40.000000, 304.000000, 96.000000
14113, 44.000000, 304.000000, 96.000000
14114, 48.000000, 304.000000, 96.000000
14115, 52.000000, 304.000000, 96.000000
14116, 56.000000, 304.000000, 96.000000
14117, 60.000000, 304.000000, 96.000000
14118, 64.000000, 304.000000, 96.000000
14119, 68.000000, 304.000000, 96.000000
14120, 72.000000, 304.000000, 96.000000
14121, 36.000000, 308.000000, 96.000000
14122, 40.000000, 308.000000, 96.000000
14123, 44.000000, 308.000000, 96.000000
14124, 48.000000, 308.000000, 96.000000
14125, 52.000000, 308.000000, 96.000000
14126, 56.000000, 308.000000, 96.000000
14127, 60.000000, 308.000000, 96.000000
14128, 64.000000, 308.000000, 96.000000
14129, 68.000000, 308.000000, 96.000000
14130, 72.000000, 308.000000, 96.000000
14131, 36.000000, 312.000000, 96.000000
14132, 40.000000, 312.000000, 96.000000
14133, 44.000000, 312.000000, 96.000000
14134, 48.000000, 312.000000, 96.000000
14135, 52.000000, 312.000000, 96.000000
14136, 56.000000, 312.000000, 96.000000
14137, 60.000000, 312.000000, 96.000000
14138, 64.000000, 312.000000, 96.000000
14139, 68.000000, 312.000000, 96.000000
14140, 72.000000, 312.000000, 96.000000
14141, 36.000000, 316.000000, 96.000000
14142, 40.000000, 316.000000, 96.000000
14143, 44.000000, 316.000000, 96.000000
14144, 48.000000, 316.000000, 96.000000
14145, 52.000000, 316.000000, 96.000000
14146, 56.000000, 316.000000, 96.000000
14147, 60.000000, 316.000000, 96.000000
14148, 64.000000, 316.000000, 96.000000
14149, 68.000000, 316.000000, 96.000000
14150, 72.000000, 316.000000, 96.000000
14151, 36.000000, 320.000000, 96.000000
14152, 40.000000, 320.000000, 96.000000
14153, 44.000000, 320.000000, 96.000000
14154, 48.000000, 320.000000, 96.000000
14155, 52.000000, 320.000000, 96.000000
14156, 56.000000, 320.000000, 96.000000
14157, 60.000000, 320.000000, 96.000000
14158, 64.000000, 320.000000, 96.000000
14159, 68.000000, 320.000000, 96.000000
14160, 72.000000, 320.000000, 96.000000
14161, 36.000000, 324.000000, 96.000000
14162, 40.000000, 324.000000, 96.000000
14163, 44.000000, 324.000000, 96.000000
14164, 48.000000, 324.000000, 96.000000
14165, 52.000000, 324.000000, 96.000000
14166, 56.000000, 324.000000, 96.000000
14167, 60.000000, 324.000000, 96.000000
14168, 64.000000, 324.000000, 96.000000
14169, 68.000000, 324.000000, 96.000000
14170, 72.000000, 324.000000, 96.000000
14171, 36.000000, 328.000000, 96.000000
14172, 40.000000, 328.000000, 96.000000
14173, 44.000000, 328.000000, 96.000000
14174, 48.000000, 328.000000, 96.000000
14175, 52.000000, 328.000000, 96.000000
14176, 56.000000, 328.000000, 96.000000
14177, 60.000000, 328.000000, 96.000000
14178, 64.000000, 328.000000, 96.000000
14179, 68.000000, 328.000000, 96.000000
14180, 72.000000, 328.000000, 96.000000
14181, 36.000000, 332.000000, 96.000000
14182, 40.000000, 332.000000, 96.000000
14183, 44.000000, 332.000000, 96.000000
14184, 48.000000, 332.000000, 96.000000
14185, 52.000000, 332.000000, 96.000000
14186, 56.000000, 332.000000, 96.000000
14187, 60.000000, 332.000000, 96.000000
14188, 64.000000, 332.000000, 96.000000
14189, 68.000000, 332.000000, 96.000000
14190, 72.000000, 332.000000, 96.000000
14191, 36.000000, 336.000000, 96.000000
14192, 40.000000, 336.000000, 96.000000
14193, 44.000000, 336.000000, 96.000000
14194, 48.000000, 336.000000, 96.000000
14195, 52.000000, 336.000000, 96.000000
14196, 56.000000, 336.000000, 96.000000
14197, 60.000000, 336.000000, 96.000000
14198, 64.000000, 336.000000, 96.000000
14199, 68.000000, 336.000000, 96.000000
14200, 72.000000, 336.000000, 96.000000
14201, 36.000000, 340.000000, 96.000000
14202, 40.000000, 340.000000, 96.000000
14203, 44.000000, 340.000000, 96.000000
14204, 48.000000, 340.000000, 96.000000
14205, 52.000000, 340.000000, 96.000000
14206, 56.000000, 340.000000, 96.000000
14207, 60.000000, 340.000000, 96.000000
14208, 64.000000, 340.000000, 96.000000
14209, 68.000000, 340.000000, 96.000000
14210, 72.000000, 340.000000, 96.000000
14211, 36.000000, 344.000000, 96.000000
14212, 40.000000, 344.000000, 96.000000
14213, 44.000000, 344.000000, 96.000000
14214, 48.000000, 344.000000, 96.000000
14215, 52.000000, 344.000000, 96.000000
14216, 56.000000, 344.000000, 96.000000
14217, 60.000000, 344.000000, 96.000000
14218, 64.000000, 344.000000, 96.000000
14219, 68.000000, 344.000000, 96.000000
14220, 72.000000, 344.000000, 96.000000
14221, 36.000000, 348.000000, 96.000000
14222, 40.000000, 348.000000, 96.000000
14223, 44.000000, 348.000000, 96.000000
14224, 48.000000, 348.000000, 96.000000
14225, 52.000000, 348.000000, 96.000000
14226, 56.000000, 348.000000, 96.000000
14227, 60.000000, 348.000000, 96.000000
14228, 64.000000, 348.000000, 96.000000
14229, 68.000000, 348.000000, 96.000000
14230, 72.000000, 348.000000, 96.000000
14231, 36.000000, 352.000000, 96.000000
14232, 40.000000, 352.000000, 96.000000
14233, 44.000000, 352.000000, 96.000000
14234, 48.000000, 352.000000, 96.000000
14235, 52.000000, 352.000000, 96.000000
14236, 56.000000, 352.000000, 96.000000
14237, 60.000000, 352.000000, 96.000000
14238, 64.000000, 352.000000, 96.000000
14239, 68.000000, 352.000000, 96.000000
14240, 72.000000, 352.000000, 96.000000
14241, 36.000000, 356.000000, 96.000000
14242, 40.000000, 356.000000, 96.000000
14243, 44.000000, 356.000000, 96.000000
14244, 48.000000, 356.000000, 96.000000
14245, 52.000000, 356.000000, 96.000000
14246, 56.000000, 356.000000, 96.000000
14247, 60.000000, 356.000000, 96.000000
14248, 64.000000, 356.000000, 96.000000
14249, 68.000000, 356.000000, 96.000000
14250, 72.000000, 356.000000, 96.000000
14251, 36.000000, 360.000000, 96.000000
14252, 40.000000, 360.000000, 96.000000
14253, 44.000000, 360.000000, 96.000000
14254, 48.000000, 360.000000, 96.000000
14255, 52.000000, 360.000000, 96.000000
14256, 56.000000, 360.000000, 96.000000
14257, 60.000000, 360.000000, 96.000000
14258, 64.000000, 360.000000, 96.000000
14259, 68.000000, 360.000000, 96.000000
14260, 72.000000, 360.000000, 96.000000
14261, 36.000000, 364.000000, 96.000000
14262, 40.000000, 364.000000, 96.000000
14263, 44.000000, 364.000000, 96.000000
14264, 48.000000, 364.000000, 96.000000
14265, 52.000000, 364.000000, 96.000000
14266, 56.000000, 364.000000, 96.000000
14267, 60.000000, 364.000000, 96.000000
14268, 64.000000, 364.000000, 96.000000
14269, 68.000000, 364.000000, 96.000000
14270, 72.000000, 364.000000, 96.000000
14271, 36.000000, 368.000000, 96.000000
14272, 40.000000, 368.000000, 96.000000
14273, 44.000000, 368.000000, 96.000000
14274, 48.000000, 368.000000, 96.000000
14275, 52.000000, 368.000000, 96.000000
14276, 56.000000, 368.000000, 96.000000
14277, 60.000000, 368.000000, 96.000000
14278, 64.000000, 368.000000, 96.000000
14279, 68.000000, 368.000000, 96.000000
14280, 72.000000, 368.000000, 96.000000
14281, 36.000000, 372.000000, 96.000000
14282, 40.000000, 372.000000, 96.000000
14283, 44.000000, 372.000000, 96.000000
14284, 48.000000, 372.000000, 96.000000
14285, 52.000000, 372.000000, 96.000000
14286, 56.000000, 372.000000, 96.000000
14287, 60.000000, 372.000000, 96.000000
14288, 64.000000, 372.000000, 96.000000
14289, 68.000000, 372.000000, 96.000000
14290, 72.000000, 372.000000, 96.000000
14291, 36.000000, 376.000000, 96.000000
14292, 40.000000, 376.000000, 96.000000
14293, 44.000000, 376.000000, 96.000000
14294, 48.000000, 376.000000, 96.000000
14295, 52.000000, 376.000000, 96.000000
14296, 56.000000, 376.000000, 96.000000
14297, 60.000000, 376.000000, 96.000000
14298, 64.000000, 376.000000, 96.000000
14299, 68.000000, 376.000000, 96.000000
14300, 72.000000, 376.000000, 96.000000
14301, 36.000000, 380.000000, 96.000000
14302, 40.000000, 380.000000, 96.000000
14303, 44.000000, 380.000000, 96.000000
14304, 48.000000, 380.000000, 96.000000
14305, 52.000000, 380.000000, 96.000000
14306, 56.000000, 380.000000, 96.000000
14307, 60.000000, 380.000000, 96.000000
14308, 64.000000, 380.000000, 96.000000
14309, 68.000000, 380.000000, 96.000000
14310, 72.000000, 380.000000, 96.000000
14311, 36.000000, 384.000000, 96.000000
14312, 40.000000, 384.000000, 96.000000
14313, 44.000000, 384.000000, 96.000000
14314, 48.000000, 384.000000, 96.000000
14315, 52.000000, 384.000000, 96.000000
14316, 56.000000, 384.000000, 96.000000
14317, 60.000000, 384.000000, 96.000000
14318, 64.000000, 384.000000, 96.000000
14319, 68.000000, 384.000000, 96.000000
14320, 72.000000, 384.000000, 96.000000
14321, 36.000000, 388.000000, 96.000000
14322, 40.000000, 388.000000, 96.000000
14323, 44.000000, 388.000000, 96.000000
14324, 48.000000, 388.000000, 96.000000
14325, 52.000000, 388.000000, 96.000000
14326, 56.000000, 388.000000, 96.000000
14327, 60.000000, 388.000000, 96.000000
14328, 64.000000, 388.000000, 96.000000
14329, 68.000000, 388.000000, 96.000000
14330, 72.000000, 388.000000, 96.000000
14331, 36.000000, 392.000000, 96.000000
14332, 40.000000, 392.000000, 96.000000
14333, 44.000000, 392.000000, 96.000000
14334, 48.000000, 392.000000, 96.000000
14335, 52.000000, 392.000000, 96.000000
14336, 56.000000, 392.000000, 96.000000
14337, 60.000000, 392.000000, 96.000000
14338, 64.000000, 392.000000, 96.000000
14339, 68.000000, 392.000000, 96.000000
14340, 72.000000, 392.000000, 96.000000
14341, 36.000000, 396.000000, 96.000000
14342, 40.000000, 396.000000, 96.000000
14343, 44.000000, 396.000000, 96.000000
14344, 48.000000, 396.000000, 96.000000
14345, 52.000000, 396.000000, 96.000000
14346, 56.000000, 396.000000, 96.000000
14347, 60.000000, 396.000000, 96.000000
14348, 64.000000, 396.000000, 96.000000
14349, 68.000000, 396.000000, 96.000000
14350, 72.000000, 396.000000, 96.000000
14351, 36.000000, 400.000000, 96.000000
14352, 40.000000, 400.000000, 96.000000
14353, 44.000000, 400.000000, 96.000000
14354, 48.000000, 400.000000, 96.000000
14355, 52.000000, 400.000000, 96.000000
14356, 56.000000, 400.000000, 96.000000
14357, 60.000000, 400.000000, 96.000000
14358, 64.000000, 400.000000, 96.000000
14359, 68.000000, 400.000000, 96.000000
14360, 72.000000, 400.000000, 96.000000
14361, 36.000000, 404.000000, 96.000000
14362, 40.000000, 404.000000, 96.000000
14363, 44.000000, 404.000000, 96.000000
14364, 48.000000, 404.000000, 96.000000
14365, 52.000000, 404.000000, 96.000000
14366, 56.000000, 404.000000, 96.000000
14367, 60.000000, 404.000000, 96.000000
14368, 64.000000, 404.000000, 96.000000
14369, 68.000000, 404.000000, 96.000000
14370, 72.000000, 404.000000, 96.000000
14371, 36.000000, 408.000000, 96.000000
14372, 40.000000, 408.000000, 96.000000
14373, 44.000000, 408.000000, 96.000000
14374, 48.000000, 408.000000, 96.000000
14375, 52.000000, 408.000000, 96.000000
14376, 56.000000, 408.000000, 96.000000
14377, 60.000000, 408.000000, 96.000000
14378, 64.000000, 408.000000, 96.000000
14379, 68.000000, 408.000000, 96.000000
14380, 72.000000, 408.000000, 96.000000
14381, 36.000000, 412.000000, 96.000000
14382, 40.000000, 412.000000, 96.000000
14383, 44.000000, 412.000000, 96.000000
14384, 48.000000, 412.000000, 96.000000
14385, 52.000000, 412.000000, 96.000000
14386, 56.000000, 412.000000, 96.000000
14387, 60.000000, 412.000000, 96.000000
14388, 64.000000, 412.000000, 96.000000
14389, 68.000000, 412.000000, 96.000000
14390, 72.000000, 412.000000, 96.000000
14391, 36.000000, 416.000000, 96.000000
14392, 40.000000, 416.000000, 96.000000
14393, 44.000000, 416.000000, 96.000000
14394, 48.000000, 416.000000, 96.000000
14395, 52.000000, 416.000000, 96.000000
14396, 56.000000, 416.000000, 96.000000
14397, 60.000000, 416.000000, 96.000000
14398, 64.000000, 416.000000, 96.000000
14399, 68.000000, 416.000000, 96.000000
14400, 72.000000, 416.000000, 96.000000
14401, 36.000000, 420.000000, 96.000000
14402, 40.000000, 420.000000, 96.000000
14403, 44.000000, 420.000000, 96.000000
14404, 48.000000, 420.000000, 96.000000
14405, 52.000000, 420.000000, 96.000000
14406, 56.000000, 420.000000, 96.000000
14407, 60.000000, 420.000000, 96.000000
14408, 64.000000, 420.000000, 96.000000
14409, 68.000000, 420.000000, 96.000000
14410, 72.000000, 420.000000, 96.000000
14411, 36.000000, 424.000000, 96.000000
14412, 40.000000, 424.000000, 96.000000
14413, 44.000000, 424.000000, 96.000000
14414, 48.000000, 424.000000, 96.000000
14415, 52.000000, 424.000000, 96.000000
14416, 56.000000, 424.000000, 96.000000
14417, 60.000000, 424.000000, 96.000000
14418, 64.000000, 424.000000, 96.000000
14419, 68.000000, 424.000000, 96.000000
14420, 72.000000, 424.000000, 96.000000
14421, 36.000000, 428.000000, 96.000000
14422, 40.000000, 428.000000, 96.000000
14423, 44.000000, 428.000000, 96.000000
14424, 48.000000, 428.000000, 96.000000
14425, 52.000000, 428.000000, 96.000000
14426, 56.000000, 428.000000, 96.000000
14427, 60.000000, 428.000000, 96.000000
14428, 64.000000, 428.000000, 96.000000
14429, 68.000000, 428.000000, 96.000000
14430, 72.000000, 428.000000, 96.000000
14431, 36.000000, 432.000000, 96.000000
14432, 40.000000, 432.000000, 96.000000
14433, 44.000000, 432.000000, 96.000000
14434, 48.000000, 432.000000, 96.000000
14435, 52.000000, 432.000000, 96.000000
14436, 56.000000, 432.000000, 96.000000
14437, 60.000000, 432.000000, 96.000000
14438, 64.000000, 432.000000, 96.000000
14439, 68.000000, 432.000000, 96.000000
14440, 72.000000, 432.000000, 96.000000
14441, 36.000000, 436.000000, 96.000000
14442, 40.000000, 436.000000, 96.000000
14443, 44.000000, 436.000000, 96.000000
14444, 48.000000, 436.000000, 96.000000
14445, 52.000000, 436.000000, 96.000000
14446, 56.000000, 436.000000, 96.000000
14447, 60.000000, 436.000000, 96.000000
14448, 64.000000, 436.000000, 96.000000
14449, 68.000000, 436.000000, 96.000000
14450, 72.000000, 436.000000, 96.000000
14451, 36.000000, 440.000000, 96.000000
14452, 40.000000, 440.000000, 96.000000
14453, 44.000000, 440.000000, 96.000000
14454, 48.000000, 440.000000, 96.000000
14455, 52.000000, 440.000000, 96.000000
14456, 56.000000, 440.000000, 96.000000
14457, 60.000000, 440.000000, 96.000000
14458, 64.000000, 440.000000, 96.000000
14459, 68.000000, 440.000000, 96.000000
14460, 72.000000, 440.000000, 96.000000
14461, 36.000000, 444.000000, 96.000000
14462, 40.000000, 444.000000, 96.000000
14463, 44.000000, 444.000000, 96.000000
14464, 48.000000, 444.000000, 96.000000
14465, 52.000000, 444.000000, 96.000000
14466, 56.000000, 444.000000, 96.000000
14467, 60.000000, 444.000000, 96.000000
14468, 64.000000, 444.000000, 96.000000
14469, 68.000000, 444.000000, 96.000000
14470, 72.000000, 444.000000, 96.000000
14471, 36.000000, 448.000000, 96.000000
14472, 40.000000, 448.000000, 96.000000
14473, 44.000000, 448.000000, 96.000000
14474, 48.000000, 448.000000, 96.000000
14475, 52.000000, 448.000000, 96.000000
14476, 56.000000, 448.000000, 96.000000
14477, 60.000000, 448.000000, 96.000000
14478, 64.000000, 448.000000, 96.000000
14479, 68.000000, 448.000000, 96.000000
14480, 72.000000, 448.000000, 96.000000
14481, 36.000000, 452.000000, 96.000000
14482, 40.000000, 452.000000, 96.000000
14483, 44.000000, 452.000000, 96.000000
14484, 48.000000, 452.000000, 96.000000
14485, 52.000000, 452.000000, 96.000000
14486, 56.000000, 452.000000, 96.000000
14487, 60.000000, 452.000000, 96.000000
14488, 64.000000, 452.000000, 96.000000
14489, 68.000000, 452.000000, 96.000000
14490, 72.000000, 452.000000, 96.000000
14491, 36.000000, 456.000000, 96.000000
14492, 40.000000, 456.000000, 96.000000
14493, 44.000000, 456.000000, 96.000000
14494, 48.000000, 456.000000, 96.000000
14495, 52.000000, 456.000000, 96.000000
14496, 56.000000, 456.000000, 96.000000
14497, 60.000000, 456.000000, 96.000000
14498, 64.000000, 456.000000, 96.000000
14499, 68.000000, 456.000000, 96.000000
14500, 72.000000, 456.000000, 96.000000
14501, 36.000000, 228.000000, 100.000000
14502, 40.000000, 228.000000, 100.000000
14503, 44.000000, 228.000000, 100.000000
14504, 48.000000, 228.000000, 100.000000
14505, 52.000000, 228.000000, 100.000000
14506, 56.000000, 228.000000, 100.000000
14507, 60.000000, 228.000000, 100.000000
14508, 64.000000, 228.000000, 100.000000
14509, 68.000000, 228.000000, 100.000000
14510, 72.000000, 228.000000, 100.000000
14511, 36.000000, 232.000000, 100.000000
14512, 40.000000, 232.000000, 100.000000
14513, 44.000000, 232.000000, 100.000000
14514, 48.000000, 232.000000, 100.000000
14515, 52.000000, 232.000000, 100.000000
14516, 56.000000, 232.000000, 100.000000
14517, 60.000000, 232.000000, 100.000000
14518, 64.000000, 232.000000, 100.000000
14519, 68.000000, 232.000000, 100.000000
14520, 72.000000, 232.000000, 100.000000
14521, 36.000000, 236.000000, 100.000000
14522, 40.000000, 236.000000, 100.000000
14523, 44.000000, 236.000000, 100.000000
14524, 48.000000, 236.000000, 100.000000
14525, 52.000000, 236.000000, 100.000000
14526, 56.000000, 236.000000, 100.000000
14527, 60.000000, 236.000000, 100.000000
14528, 64.000000, 236.000000, 100.000000
14529, 68.000000, 236.000000, 100.000000
14530, 72.000000, 236.000000, 100.000000
14531, 36.000000, 240.000000, 100.000000
14532, 40.000000, 240.000000, 100.000000
14533, 44.000000, 240.000000, 100.000000
14534, 48.000000, 240.000000, 100.000000
14535, 52.000000, 240.000000, 100.000000
14536, 56.000000, 240.000000, 100.000000
14537, 60.000000, 240.000000, 100.000000
14538, 64.000000, 240.000000, 100.000000
14539, 68.000000, 240.000000, 100.000000
14540, 72.000000, 240.000000, 100.000000
14541, 36.000000, 244.000000, 100.000000
14542, 40.000000, 244.000000, 100.000000
14543, 44.000000, 244.000000, 100.000000
14544, 48.000000, 244.000000, 100.000000
14545, 52.000000, 244.000000, 100.000000
14546, 56.000000, 244.000000, 100.000000
14547, 60.000000, 244.000000, 100.000000
14548, 64.000000, 244.000000, 100.000000
14549, 68.000000, 244.000000, 100.000000
14550, 72.000000, 244.000000, 100.000000
14551, 36.000000, 248.000000, 100.000000
14552, 40.000000, 248.000000, 100.000000
14553, 44.000000, 248.000000, 100.000000
14554, 48.000000, 248.000000, 100.000000
14555, 52.000000, 248.000000, 100.000000
14556, 56.000000, 248.000000, 100.000000
14557, 60.000000, 248.000000, 100.000000
14558, 64.000000, 248.000000, 100.000000
14559, 68.000000, 248.000000, 100.000000
14560, 72.000000, 248.000000, 100.000000
14561, 36.000000, 252.000000, 100.000000
14562, 40.000000, 252.000000, 100.000000
14563, 44.000000, 252.000000, 100.000000
14564, 48.000000, 252.000000, 100.000000
14565, 52.000000, 252.000000, 100.000000
14566, 56.000000, 252.000000, 100.000000
14567, 60.000000, 252.000000, 100.000000
14568, 64.000000, 252.000000, 100.000000
14569, 68.000000, 252.000000, 100.000000
14570, 72.000000, 252.000000, 100.000000
14571, 36.000000, 256.000000, 100.000000
14572, 40.000000, 256.000000, 100.000000
14573, 44.000000, 256.000000, 100.000000
14574, 48.000000, 256.000000, 100.000000
14575, 52.000000, 256.000000, 100.000000
14576, 56.000000, 256.000000, 100.000000
14577, 60.000000, 256.000000, 100.000000
14578, 64.000000, 256.000000, 100.000000
14579, 68.000000, 256.000000, 100.000000
14580, 72.000000, 256.000000, 100.000000
14581, 36.000000, 260.000000, 100.000000
14582, 40.000000, 260.000000, 100.000000
14583, 44.000000, 260.000000, 100.000000
14584, 48.000000, 260.000000, 100.000000
14585, 52.000000, 260.000000, 100.000000
14586, 56.000000, 260.000000, 100.000000
14587, 60.000000, 260.000000, 100.000000
14588, 64.000000, 260.000000, 100.000000
14589, 68.000000, 260.000000, 100.000000
14590, 72.000000, 260.000000, 100.000000
14591, 36.000000, 264.000000, 100.000000
14592, 40.000000, 264.000000, 100.000000
14593, 44.000000, 264.000000, 100.000000
14594, 48.000000, 264.000000, 100.000000
14595, 52.000000, 264.000000, 100.000000
14596, 56.000000, 264.000000, 100.000000
14597, 60.000000, 264.000000, 100.000000
14598, 64.000000, 264.000000, 100.000000
14599, 68.000000, 264.000000, 100.000000
14600, 72.000000, 264.000000, 100.000000
14601, 36.000000, 268.000000, 100.000000
14602, 40.000000, 268.000000, 100.000000
14603, 44.000000, 268.000000, 100.000000
14604, 48.000000, 268.000000, 100.000000
14605, 52.000000, 268.000000, 100.000000
14606, 56.000000, 268.000000, 100.000000
14607, 60.000000, 268.000000, 100.000000
14608, 64.000000, 268.000000, 100.000000
14609, 68.000000, 268.000000, 100.000000
14610, 72.000000, 268.000000, 100.000000
14611, 36.000000, 272.000000, 100.000000
14612, 40.000000, 272.000000, 100.000000
14613, 44.000000, 272.000000, 100.000000
14614, 48.000000, 272.000000, 100.000000
14615, 52.000000, 272.000000, 100.000000
14616, 56.000000, 272.000000, 100.000000
14617, 60.000000, 272.000000, 100.000000
14618, 64.000000, 272.000000, 100.000000
14619, 68.000000, 272.000000, 100.000000
14620, 72.000000, 272.000000, 100.000000
14621, 36.000000, 276.000000, 100.000000
14622, 40.000000, 276.000000, 100.000000
14623, 44.000000, 276.000000, 100.000000
14624, 48.000000, 276.000000, 100.000000
14625, 52.000000, 276.000000, 100.000000
14626, 56.000000, 276.000000, 100.000000
14627, 60.000000, 276.000000, 100.000000
14628, 64.000000, 276.000000, 100.000000
14629, 68.000000, 276.000000, 100.000000
14630, 72.000000, 276.000000, 100.000000
14631, 36.000000, 280.000000, 100.000000
14632, 40.000000, 280.000000, 100.000000
14633, 44.000000, 280.000000, 100.000000
14634, 48.000000, 280.000000, 100.000000
14635, 52.000000, 280.000000, 100.000000
14636, 56.000000, 280.000000, 100.000000
14637, 60.000000, 280.000000, 100.000000
14638, 64.000000, 280.000000, 100.000000
14639, 68.000000, 280.000000, 100.000000
14640, 72.000000, 280.000000, 100.000000
14641, 36.000000, 284.000000, 100.000000
14642, 40.000000, 284.000000, 100.000000
14643, 44.000000, 284.000000, 100.000000
14644, 48.000000, 284.000000, 100.000000
14645, 52.000000, 284.000000, 100.000000
14646, 56.000000, 284.000000, 100.000000
14647, 60.000000, 284.000000, 100.000000
14648, 64.000000, 284.000000, 100.000000
14649, 68.000000, 284.000000, 100.000000
14650, 72.000000, 284.000000, 100.000000
14651, 36.000000, 288.000000, 100.000000
14652, 40.000000, 288.000000, 100.000000
14653, 44.000000, 288.000000, 100.000000
14654, 48.000000, 288.000000, 100.000000
14655, 52.000000, 288.000000, 100.000000
14656, 56.000000, 288.000000, 100.000000
14657, 60.000000, 288.000000, 100.000000
14658, 64.000000, 288.000000, 100.000000
14659, 68.000000, 288.000000, 100.000000
14660, 72.000000, 288.000000, 100.000000
14661, 36.000000, 292.000000, 100.000000
14662, 40.000000, 292.000000, 100.000000
14663, 44.000000, 292.000000, 100.000000
14664, 48.000000, 292.000000, 100.000000
14665, 52.000000, 292.000000, 100.000000
14666, 56.000000, 292.000000, 100.000000
14667, 60.000000, 292.000000, 100.000000
14668, 64.000000, 292.000000, 100.000000
14669, 68.000000, 292.000000, 100.000000
14670, 72.000000, 292.000000, 100.000000
14671, 36.000000, 296.000000, 100.000000
14672, 40.000000, 296.000000, 100.000000
14673, 44.000000, 296.000000, 100.000000
14674, 48.000000, 296.000000, 100.000000
14675, 52.000000, 296.000000, 100.000000
14676, 56.000000, 296.000000, 100.000000
14677, 60.000000, 296.000000, 100.000000
14678, 64.000000, 296.000000, 100.000000
14679, 68.000000, 296.000000, 100.000000
14680, 72.000000, 296.000000, 100.000000
14681, 36.000000, 300.000000, 100.000000
14682, 40.000000, 300.000000, 100.000000
14683, 44.000000, 300.000000, 100.000000
14684, 48.000000, 300.000000, 100.000000
14685, 52.000000, 300.000000, 100.000000
14686, 56.000000, 300.000000, 100.000000
14687, 60.000000, 300.000000, 100.000000
14688, 64.000000, 300.000000, 100.000000
14689, 68.000000, 300.000000, 100.000000
14690, 72.000000, 300.000000, 100.000000
14691, 36.000000, 304.000000, 100.000000
14692, 40.000000, 304.000000, 100.000000
14693, 44.000000, 304.000000, 100.000000
14694, 48.000000, 304.000000, 100.000000
14695, 52.000000, 304.000000, 100.000000
14696, 56.000000, 304.000000, 100.000000
14697, 60.000000, 304.000000, 100.000000
14698, 64.000000, 304.000000, 100.000000
14699, 68.000000, 304.000000, 100.000000
14700, 72.000000, 304.000000, 100.000000
14701, 36.000000, 308.000000, 100.000000
14702, 40.000000, 308.000000, 100.000000
14703, 44.000000, 308.000000, 100.000000
14704, 48.000000, 308.000000, 100.000000
14705, 52.000000, 308.000000, 100.000000
14706, 56.000000, 308.000000, 100.000000
14707, 60.000000, 308.000000, 100.000000
14708, 64.000000, 308.000000, 100.000000
14709, 68.000000, 308.000000, 100.000000
14710, 72.000000, 308.000000, 100.000000
14711, 36.000000, 312.000000, 100.000000
14712, 40.000000, 312.000000, 100.000000
14713, 44.000000, 312.000000, 100.000000
14714, 48.000000, 312.000000, 100.000000
14715, 52.000000, 312.000000, 100.000000
14716, 56.000000, 312.000000, 100.000000
14717, 60.000000, 312.000000, 100.000000
14718, 64.000000, 312.000000, 100.000000
14719, 68.000000, 312.000000, 100.000000
14720, 72.000000, 312.000000, 100.000000
14721, 36.000000, 316.000000, 100.000000
14722, 40.000000, 316.000000, 100.000000
14723, 44.000000, 316.000000, 100.000000
14724, 48.000000, 316.000000, 100.000000
14725, 52.000000, 316.000000, 100.000000
14726, 56.000000, 316.000000, 100.000000
14727, 60.000000, 316.000000, 100.000000
14728, 64.000000, 316.000000, 100.000000
14729, 68.000000, 316.000000, 100.000000
14730, 72.000000, 316.000000, 100.000000
14731, 36.000000, 320.000000, 100.000000
14732, 40.000000, 320.000000, 100.000000
14733, 44.000000, 320.000000, 100.000000
14734, 48.000000, 320.000000, 100.000000
14735, 52.000000, 320.000000, 100.000000
14736, 56.000000, 320.000000, 100.000000
14737, 60.000000, 320.000000, 100.000000
14738, 64.000000, 320.000000, 100.000000
14739, 68.000000, 320.000000, 100.000000
14740, 72.000000, 320.000000, 100.000000
14741, 36.000000, 324.000000, 100.000000
14742, 40.000000, 324.000000, 100.000000
14743, 44.000000, 324.000000, 100.000000
14744, 48.000000, 324.000000, 100.000000
14745, 52.000000, 324.000000, 100.000000
14746, 56.000000, 324.000000, 100.000000
14747, 60.000000, 324.000000, 100.000000
14748, 64.000000, 324.000000, 100.000000
14749, 68.000000, 324.000000, 100.000000
14750, 72.000000, 324.000000, 100.000000
14751, 36.000000, 328.000000, 100.000000
14752, 40.000000, 328.000000, 100.000000
14753, 44.000000, 328.000000, 100.000000
14754, 48.000000, 328.000000, 100.000000
14755, 52.000000, 328.000000, 100.000000
14756, 56.000000, 328.000000, 100.000000
14757, 60.000000, 328.000000, 100.000000
14758, 64.000000, 328.000000, 100.000000
14759, 68.000000, 328.000000, 100.000000
14760, 72.000000, 328.000000, 100.000000
14761, 36.000000, 332.000000, 100.000000
14762, 40.000000, 332.000000, 100.000000
14763, 44.000000, 332.000000, 100.000000
14764, 48.000000, 332.000000, 100.000000
14765, 52.000000, 332.000000, 100.000000
14766, 56.000000, 332.000000, 100.000000
14767, 60.000000, 332.000000, 100.000000
14768, 64.000000, 332.000000, 100.000000
14769, 68.000000, 332.000000, 100.000000
14770, 72.000000, 332.000000, 100.000000
14771, 36.000000, 336.000000, 100.000000
14772, 40.000000, 336.000000, 100.000000
14773, 44.000000, 336.000000, 100.000000
14774, 48.000000, 336.000000, 100.000000
14775, 52.000000, 336.000000, 100.000000
14776, 56.000000, 336.000000, 100.000000
14777, 60.000000, 336.000000, 100.000000
14778, 64.000000, 336.000000, 100.000000
14779, 68.000000, 336.000000, 100.000000
14780, 72.000000, 336.000000, 100.000000
14781, 36.000000, 340.000000, 100.000000
14782, 40.000000, 340.000000, 100.000000
14783, 44.000000, 340.000000, 100.000000
14784, 48.000000, 340.000000, 100.000000
14785, 52.000000, 340.000000, 100.000000
14786, 56.000000, 340.000000, 100.000000
14787, 60.000000, 340.000000, 100.000000
14788, 64.000000, 340.000000, 100.000000
14789, 68.000000, 340.000000, 100.000000
14790, 72.000000, 340.000000, 100.000000
14791, 36.000000, 344.000000, 100.000000
14792, 40.000000, 344.000000, 100.000000
14793, 44.000000, 344.000000, 100.000000
14794, 48.000000, 344.000000, 100.000000
14795, 52.000000, 344.000000, 100.000000
14796, 56.000000, 344.000000, 100.000000
14797, 60.000000, 344.000000, 100.000000
14798, 64.000000, 344.000000, 100.000000
14799, 68.000000, 344.000000, 100.000000
14800, 72.000000, 344.000000, 100.000000
14801, 36.000000, 348.000000, 100.000000
14802, 40.000000, 348.000000, 100.000000
14803, 44.000000, 348.000000, 100.000000
14804, 48.000000, 348.000000, 100.000000
14805, 52.000000, 348.000000, 100.000000
14806, 56.000000, 348.000000, 100.000000
14807, 60.000000, 348.000000, 100.000000
14808, 64.000000, 348.000000, 100.000000
14809, 68.000000, 348.000000, 100.000000
14810, 72.000000, 348.000000, 100.000000
14811, 36.000000, 352.000000, 100.000000
14812, 40.000000, 352.000000, 100.000000
14813, 44.000000, 352.000000, 100.000000
14814, 48.000000, 352.000000, 100.000000
14815, 52.000000, 352.000000, 100.000000
14816, 56.000000, 352.000000, 100.000000
14817, 60.000000, 352.000000, 100.000000
14818, 64.000000, 352.000000, 100.000000
14819, 68.000000, 352.000000, 100.000000
14820, 72.000000, 352.000000, 100.000000
14821, 36.000000, 356.000000, 100.000000
14822, 40.000000, 356.000000, 100.000000
14823, 44.000000, 356.000000, 100.000000
14824, 48.000000, 356.000000, 100.000000
14825, 52.000000, 356.000000, 100.000000
14826, 56.000000, 356.000000, 100.000000
14827, 60.000000, 356.000000, 100.000000
14828, 64.000000, 356.000000, 100.000000
14829, 68.000000, 356.000000, 100.000000
14830, 72.000000, 356.000000, 100.000000
14831, 36.000000, 360.000000, 100.000000
14832, 40.000000, 360.000000, 100.000000
14833, 44.000000, 360.000000, 100.000000
14834, 48.000000, 360.000000, 100.000000
14835, 52.000000, 360.000000, 100.000000
14836, 56.000000, 360.000000, 100.000000
14837, 60.000000, 360.000000, 100.000000
14838, 64.000000, 360.000000, 100.000000
14839, 68.000000, 360.000000, 100.000000
14840, 72.000000, 360.000000, 100.000000
14841, 36.000000, 364.000000, 100.000000
14842, 40.000000, 364.000000, 100.000000
14843, 44.000000, 364.000000, 100.000000
14844, 48.000000, 364.000000, 100.000000
14845, 52.000000, 364.000000, 100.000000
14846, 56.000000, 364.000000, 100.000000
14847, 60.000000, 364.000000, 100.000000
14848, 64.000000, 364.000000, 100.000000
14849, 68.000000, 364.000000, 100.000000
14850, 72.000000, 364.000000, 100.000000
14851, 36.000000, 368.000000, 100.000000
14852, 40.000000, 368.000000, 100.000000
14853, 44.000000, 368.000000, 100.000000
14854, 48.000000, 368.000000, 100.000000
14855, 52.000000, 368.000000, 100.000000
14856, 56.000000, 368.000000, 100.000000
14857, 60.000000, 368.000000, 100.000000
14858, 64.000000, 368.000000, 100.000000
14859, 68.000000, 368.000000, 100.000000
14860, 72.000000, 368.000000, 100.000000
14861, 36.000000, 372.000000, 100.000000
14862, 40.000000, 372.000000, 100.000000
14863, 44.000000, 372.000000, 100.000000
14864, 48.000000, 372.000000, 100.000000
14865, 52.000000, 372.000000, 100.000000
14866, 56.000000, 372.000000, 100.000000
14867, 60.000000, 372.000000, 100.000000
14868, 64.000000, 372.000000, 100.000000
14869, 68.000000, 372.000000, 100.000000
14870, 72.000000, 372.000000, 100.000000
14871, 36.000000, 376.000000, 100.000000
14872, 40.000000, 376.000000, 100.000000
14873, 44.000000, 376.000000, 100.000000
14874, 48.000000, 376.000000, 100.000000
14875, 52.000000, 376.000000, 100.000000
14876, 56.000000, 376.000000, 100.000000
14877, 60.000000, 376.000000, 100.000000
14878, 64.000000, 376.000000, 100.000000
14879, 68.000000, 376.000000, 100.000000
14880, 72.000000, 376.000000, 100.000000
14881, 36.000000, 380.000000, 100.000000
14882, 40.000000, 380.000000, 100.000000
14883, 44.000000, 380.000000, 100.000000
14884, 48.000000, 380.000000, 100.000000
14885, 52.000000, 380.000000, 100.000000
14886, 56.000000, 380.000000, 100.000000
14887, 60.000000, 380.000000, 100.000000
14888, 64.000000, 380.000000, 100.000000
14889, 68.000000, 380.000000, 100.000000
14890, 72.000000, 380.000000, 100.000000
14891, 36.000000, 384.000000, 100.000000
14892, 40.000000, 384.000000, 100.000000
14893, 44.000000, 384.000000, 100.000000
14894, 48.000000, 384.000000, 100.000000
14895, 52.000000, 384.000000, 100.000000
14896, 56.000000, 384.000000, 100.000000
14897, 60.000000, 384.000000, 100.000000
14898, 64.000000, 384.000000, 100.000000
14899, 68.000000, 384.000000, 100.000000
14900, 72.000000, 384.000000, 100.000000
14901, 36.000000, 388.000000, 100.000000
14902, 40.000000, 388.000000, 100.000000
14903, 44.000000, 388.000000, 100.000000
14904, 48.000000, 388.000000, 100.000000
14905, 52.000000, 388.000000, 100.000000
14906, 56.000000, 388.000000, 100.000000
14907, 60.000000, 388.000000, 100.000000
14908, 64.000000, 388.000000, 100.000000
14909, 68.000000, 388.000000, 100.000000
14910, 72.000000, 388.000000, 100.000000
14911, 36.000000, 392.000000, 100.000000
14912, 40.000000, 392.000000, 100.000000
14913, 44.000000, 392.000000, 100.000000
14914, 48.000000, 392.000000, 100.000000
14915, 52.000000, 392.000000, 100.000000
14916, 56.000000, 392.000000, 100.000000
14917, 60.000000, 392.000000, 100.000000
14918, 64.000000, 392.000000, 100.000000
14919, 68.000000, 392.000000, 100.000000
14920, 72.000000, 392.000000, 100.000000
14921, 36.000000, 396.000000, 100.000000
14922, 40.000000, 396.000000, 100.000000
14923, 44.000000, 396.000000, 100.000000
14924, 48.000000, 396.000000, 100.000000
14925, 52.000000, 396.000000, 100.000000
14926, 56.000000, 396.000000, 100.000000
14927, 60.000000, 396.000000, 100.000000
14928, 64.000000, 396.000000, 100.000000
14929, 68.000000, 396.000000, 100.000000
14930, 72.000000, 396.000000, 100.000000
14931, 36.000000, 400.000000, 100.000000
14932, 40.000000, 400.000000, 100.000000
14933, 44.000000, 400.000000, 100.000000
14934, 48.000000, 400.000000, 100.000000
14935, 52.000000, 400.000000, 100.000000
14936, 56.000000, 400.000000, 100.000000
14937, 60.000000, 400.000000, 100.000000
14938, 64.000000, 400.000000, 100.000000
14939, 68.000000, 400.000000, 100.000000
14940, 72.000000, 400.000000, 100.000000
14941, 36.000000, 404.000000, 100.000000
14942, 40.000000, 404.000000, 100.000000
14943, 44.000000, 404.000000, 100.000000
14944, 48.000000, 404.000000, 100.000000
14945, 52.000000, 404.000000, 100.000000
14946, 56.000000, 404.000000, 100.000000
14947, 60.000000, 404.000000, 100.000000
14948, 64.000000, 404.000000, 100.000000
14949, 68.000000, 404.000000, 100.000000
14950, 72.000000, 404.000000, 100.000000
14951, 36.000000, 408.000000, 100.000000
14952, 40.000000, 408.000000, 100.000000
14953, 44.000000, 408.000000, 100.000000
14954, 48.000000, 408.000000, 100.000000
14955, 52.000000, 408.000000, 100.000000
14956, 56.000000, 408.000000, 100.000000
14957, 60.000000, 408.000000, 100.000000
14958, 64.000000, 408.000000, 100.000000
14959, 68.000000, 408.000000, 100.000000
14960, 72.000000, 408.000000, 100.000000
14961, 36.000000, 412.000000, 100.000000
14962, 40.000000, 412.000000, 100.000000
14963, 44.000000, 412.000000, 100.000000
14964, 48.000000, 412.000000, 100.000000
14965, 52.000000, 412.000000, 100.000000
14966, 56.000000, 412.000000, 100.000000
14967, 60.000000, 412.000000, 100.000000
14968, 64.000000, 412.000000, 100.000000
14969, 68.000000, 412.000000, 100.000000
14970, 72.000000, 412.000000, 100.000000
14971, 36.000000, 416.000000, 100.000000
14972, 40.000000, 416.000000, 100.000000
14973, 44.000000, 416.000000, 100.000000
14974, 48.000000, 416.000000, 100.000000
14975, 52.000000, 416.000000, 100.000000
14976, 56.000000, 416.000000, 100.000000
14977, 60.000000, 416.000000, 100.000000
14978, 64.000000, 416.000000, 100.000000
14979, 68.000000, 416.000000, 100.000000
14980, 72.000000, 416.000000, 100.000000
14981, 36.000000, 420.000000, 100.000000
14982, 40.000000, 420.000000, 100.000000
14983, 44.000000, 420.000000, 100.000000
14984, 48.000000, 420.000000, 100.000000
14985, 52.000000, 420.000000, 100.000000
14986, 56.000000, 420.000000, 100.000000
14987, 60.000000, 420.000000, 100.000000
14988, 64.000000, 420.000000, 100.000000
14989, 68.000000, 420.000000, 100.000000
14990, 72.000000, 420.000000, 100.000000
14991, 36.000000, 424.000000, 100.000000
14992, 40.000000, 424.000000, 100.000000
14993, 44.000000, 424.000000, 100.000000
14994, 48.000000, 424.000000, 100.000000
14995, 52.000000, 424.000000, 100.000000
14996, 56.000000, 424.000000, 100.000000
14997, 60.000000, 424.000000, 100.000000
14998, 64.000000, 424.000000, 100.000000
14999, 68.000000, 424.000000, 100.000000
15000, 72.000000, 424.000000, 100.000000
15001, 36.000000, 428.000000, 100.000000
15002, 40.000000, 428.000000, 100.000000
15003, 44.000000, 428.000000, 100.000000
15004, 48.000000, 428.000000, 100.000000
15005, 52.000000, 428.000000, 100.000000
15006, 56.000000, 428.000000, 100.000000
15007, 60.000000, 428.000000, 100.000000
15008, 64.000000, 428.000000, 100.000000
15009, 68.000000, 428.000000, 100.000000
15010, 72.000000, 428.000000, 100.000000
15011, 36.000000, 432.000000, 100.000000
15012, 40.000000, 432.000000, 100.000000
15013, 44.000000, 432.000000, 100.000000
15014, 48.000000, 432.000000, 100.000000
15015, 52.000000, 432.000000, 100.000000
15016, 56.000000, 432.000000, 100.000000
15017, 60.000000, 432.000000, 100.000000
15018, 64.000000, 432.000000, 100.000000
15019, 68.000000, 432.000000, 100.000000
15020, 72.000000, 432.000000, 100.000000
15021, 36.000000, 436.000000, 100.000000
15022, 40.000000, 436.000000, 100.000000
15023, 44.000000, 436.000000, 100.000000
15024, 48.000000, 436.000000, 100.000000
15025, 52.000000, 436.000000, 100.000000
15026, 56.000000, 436.000000, 100.000000
15027, 60.000000, 436.000000, 100.000000
15028, 64.000000, 436.000000, 100.000000
15029, 68.000000, 436.000000, 100.000000
15030, 72.000000, 436.000000, 100.000000
15031, 36.000000, 440.000000, 100.000000
15032, 40.000000, 440.000000, 100.000000
15033, 44.000000, 440.000000, 100.000000
15034, 48.000000, 440.000000, 100.000000
15035, 52.000000, 440.000000, 100.000000
15036, 56.000000, 440.000000, 100.000000
15037, 60.000000, 440.000000, 100.000000
15038, 64.000000, 440.000000, 100.000000
15039, 68.000000, 440.000000, 100.000000
15040, 72.000000, 440.000000, 100.000000
15041, 36.000000, 444.000000, 100.000000
15042, 40.000000, 444.000000, 100.000000
15043, 44.000000, 444.000000, 100.000000
15044, 48.000000, 444.000000, 100.000000
15045, 52.000000, 444.000000, 100.000000
15046, 56.000000, 444.000000, 100.000000
15047, 60.000000, 444.000000, 100.000000
15048, 64.000000, 444.000000, 100.000000
15049, 68.000000, 444.000000, 100.000000
15050, 72.000000, 444.000000, 100.000000
15051, 36.000000, 448.000000, 100.000000
15052, 40.000000, 448.000000, 100.000000
15053, 44.000000, 448.000000, 100.000000
15054, 48.000000, 448.000000, 100.000000
15055, 52.000000, 448.000000, 100.000000
15056, 56.000000, 448.000000, 100.000000
15057, 60.000000, 448.000000, 100.000000
15058, 64.000000, 448.000000, 100.000000
15059, 68.000000, 448.000000, 100.000000
15060, 72.000000, 448.000000, 100.000000
15061, 36.000000, 452.000000, 100.000000
15062, 40.000000, 452.000000, 100.000000
15063, 44.000000, 452.000000, 100.000000
15064, 48.000000, 452.000000, 100.000000
15065, 52.000000, 452.000000, 100.000000
15066, 56.000000, 452.000000, 100.000000
15067, 60.000000, 452.000000, 100.000000
15068, 64.000000, 452.000000, 100.000000
15069, 68.000000, 452.000000, 100.000000
15070, 72.000000, 452.000000, 100.000000
15071, 36.000000, 456.000000, 100.000000
15072, 40.000000, 456.000000, 100.000000
15073, 44.000000, 456.000000, 100.000000
15074, 48.000000, 456.000000, 100.000000
15075, 52.000000, 456.000000, 100.000000
15076, 56.000000, 456.000000, 100.000000
15077, 60.000000, 456.000000, 100.000000
15078, 64.000000, 456.000000, 100.000000
15079, 68.000000, 456.000000, 100.000000
15080, 72.000000, 456.000000, 100.000000
15081, 36.000000, 228.000000, 104.000000
15082, 40.000000, 228.000000, 104.000000
15083, 44.000000, 228.000000, 104.000000
15084, 48.000000, 228.000000, 104.000000
15085, 52.000000, 228.000000, 104.000000
15086, 56.000000, 228.000000, 104.000000
15087, 60.000000, 228.000000, 104.000000
15088, 64.000000, 228.000000, 104.000000
15089, 68.000000, 228.000000, 104.000000
15090, 72.000000, 228.000000, 104.000000
15091, 36.000000, 232.000000, 104.000000
15092, 40.000000, 232.000000, 104.000000
15093, 44.000000, 232.000000, 104.000000
15094, 48.000000, 232.000000, 104.000000
15095, 52.000000, 232.000000, 104.000000
15096, 56.000000, 232.000000, 104.000000
15097, 60.000000, 232.000000, 104.000000
15098, 64.000000, 232.000000, 104.000000
15099, 68.000000, 232.000000, 104.000000
15100, 72.000000, 232.000000, 104.000000
15101, 36.000000, 236.000000, 104.000000
15102, 40.000000, 236.000000, 104.000000
15103, 44.000000, 236.000000, 104.000000
15104, 48.000000, 236.000000, 104.000000
15105, 52.000000, 236.000000, 104.000000
15106, 56.000000, 236.000000, 104.000000
15107, 60.000000, 236.000000, 104.000000
15108, 64.000000, 236.000000, 104.000000
15109, 68.000000, 236.000000, 104.000000
15110, 72.000000, 236.000000, 104.000000
15111, 36.000000, 240.000000, 104.000000
15112, 40.000000, 240.000000, 104.000000
15113, 44.000000, 240.000000, 104.000000
15114, 48.000000, 240.000000, 104.000000
15115, 52.000000, 240.000000, 104.000000
15116, 56.000000, 240.000000, 104.000000
15117, 60.000000, 240.000000, 104.000000
15118, 64.000000, 240.000000, 104.000000
15119, 68.000000, 240.000000, 104.000000
15120, 72.000000, 240.000000, 104.000000
15121, 36.000000, 244.000000, 104.000000
15122, 40.000000, 244.000000, 104.000000
15123, 44.000000, 244.000000, 104.000000
15124, 48.000000, 244.000000, 104.000000
15125, 52.000000, 244.000000, 104.000000
15126, 56.000000, 244.000000, 104.000000
15127, 60.000000, 244.000000, 104.000000
15128, 64.000000, 244.000000, 104.000000
15129, 68.000000, 244.000000, 104.000000
15130, 72.000000, 244.000000, 104.000000
15131, 36.000000, 248.000000, 104.000000
15132, 40.000000, 248.000000, 104.000000
15133, 44.000000, 248.000000, 104.000000
15134, 48.000000, 248.000000, 104.000000
15135, 52.000000, 248.000000, 104.000000
15136, 56.000000, 248.000000, 104.000000
15137, 60.000000, 248.000000, 104.000000
15138, 64.000000, 248.000000, 104.000000
15139, 68.000000, 248.000000, 104.000000
15140, 72.000000, 248.000000, 104.000000
15141, 36.000000, 252.000000, 104.000000
15142, 40.000000, 252.000000, 104.000000
15143, 44.000000, 252.000000, 104.000000
15144, 48.000000, 252.000000, 104.000000
15145, 52.000000, 252.000000, 104.000000
15146, 56.000000, 252.000000, 104.000000
15147, 60.000000, 252.000000, 104.000000
15148, 64.000000, 252.000000, 104.000000
15149, 68.000000, 252.000000, 104.000000
15150, 72.000000, 252.000000, 104.000000
15151, 36.000000, 256.000000, 104.000000
15152, 40.000000, 256.000000, 104.000000
15153, 44.000000, 256.000000, 104.000000
15154, 48.000000, 256.000000, 104.000000
15155, 52.000000, 256.000000, 104.000000
15156, 56.000000, 256.000000, 104.000000
15157, 60.000000, 256.000000, 104.000000
15158, 64.000000, 256.000000, 104.000000
15159, 68.000000, 256.000000, 104.000000
15160, 72.000000, 256.000000, 104.000000
15161, 36.000000, 260.000000, 104.000000
15162, 40.000000, 260.000000, 104.000000
15163, 44.000000, 260.000000, 104.000000
15164, 48.000000, 260.000000, 104.000000
15165, 52.000000, 260.000000, 104.000000
15166, 56.000000, 260.000000, 104.000000
15167, 60.000000, 260.000000, 104.000000
15168, 64.000000, 260.000000, 104.000000
15169, 68.000000, 260.000000, 104.000000
15170, 72.000000, 260.000000, 104.000000
15171, 36.000000, 264.000000, 104.000000
15172, 40.000000, 264.000000, 104.000000
15173, 44.000000, 264.000000, 104.000000
15174, 48.000000, 264.000000, 104.000000
15175, 52.000000, 264.000000, 104.000000
15176, 56.000000, 264.000000, 104.000000
15177, 60.000000, 264.000000, 104.000000
15178, 64.000000, 264.000000, 104.000000
15179, 68.000000, 264.000000, 104.000000
15180, 72.000000, 264.000000, 104.000000
15181, 36.000000, 268.000000, 104.000000
15182, 40.000000, 268.000000, 104.000000
15183, 44.000000, 268.000000, 104.000000
15184, 48.000000, 268.000000, 104.000000
15185, 52.000000, 268.000000, 104.000000
15186, 56.000000, 268.000000, 104.000000
15187, 60.000000, 268.000000, 104.000000
15188, 64.000000, 268.000000, 104.000000
15189, 68.000000, 268.000000, 104.000000
15190, 72.000000, 268.000000, 104.000000
15191, 36.000000, 272.000000, 104.000000
15192, 40.000000, 272.000000, 104.000000
15193, 44.000000, 272.000000, 104.000000
15194, 48.000000, 272.000000, 104.000000
15195, 52.000000, 272.000000, 104.000000
15196, 56.000000, 272.000000, 104.000000
15197, 60.000000, 272.000000, 104.000000
15198, 64.000000, 272.000000, 104.000000
15199, 68.000000, 272.000000, 104.000000
15200, 72.000000, 272.000000, 104.000000
15201, 36.000000, 276.000000, 104.000000
15202, 40.000000, 276.000000, 104.000000
15203, 44.000000, 276.000000, 104.000000
15204, 48.000000, 276.000000, 104.000000
15205, 52.000000, 276.000000, 104.000000
15206, 56.000000, 276.000000, 104.000000
15207, 60.000000, 276.000000, 104.000000
15208, 64.000000, 276.000000, 104.000000
15209, 68.000000, 276.000000, 104.000000
15210, 72.000000, 276.000000, 104.000000
15211, 36.000000, 280.000000, 104.000000
15212, 40.000000, 280.000000, 104.000000
15213, 44.000000, 280.000000, 104.000000
15214, 48.000000, 280.000000, 104.000000
15215, 52.000000, 280.000000, 104.000000
15216, 56.000000, 280.000000, 104.000000
15217, 60.000000, 280.000000, 104.000000
15218, 64.000000, 280.000000, 104.000000
15219, 68.000000, 280.000000, 104.000000
15220, 72.000000, 280.000000, 104.000000
15221, 36.000000, 284.000000, 104.000000
15222, 40.000000, 284.000000, 104.000000
15223, 44.000000, 284.000000, 104.000000
15224, 48.000000, 284.000000, 104.000000
15225, 52.000000, 284.000000, 104.000000
15226, 56.000000, 284.000000, 104.000000
15227, 60.000000, 284.000000, 104.000000
15228, 64.000000, 284.000000, 104.000000
15229, 68.000000, 284.000000, 104.000000
15230, 72.000000, 284.000000, 104.000000
15231, 36.000000, 288.000000, 104.000000
15232, 40.000000, 288.000000, 104.000000
15233, 44.000000, 288.000000, 104.000000
15234, 48.000000, 288.000000, 104.000000
15235, 52.000000, 288.000000, 104.000000
15236, 56.000000, 288.000000, 104.000000
15237, 60.000000, 288.000000, 104.000000
15238, 64.000000, 288.000000, 104.000000
15239, 68.000000, 288.000000, 104.000000
15240, 72.000000, 288.000000, 104.000000
15241, 36.000000, 292.000000, 104.000000
15242, 40.000000, 292.000000, 104.000000
15243, 44.000000, 292.000000, 104.000000
15244, 48.000000, 292.000000, 104.000000
15245, 52.000000, 292.000000, 104.000000
15246, 56.000000, 292.000000, 104.000000
15247, 60.000000, 292.000000, 104.000000
15248, 64.000000, 292.000000, 104.000000
15249, 68.000000, 292.000000, 104.000000
15250, 72.000000, 292.000000, 104.000000
15251, 36.000000, 296.000000, 104.000000
15252, 40.000000, 296.000000, 104.000000
15253, 44.000000, 296.000000, 104.000000
15254, 48.000000, 296.000000, 104.000000
15255, 52.000000, 296.000000, 104.000000
15256, 56.000000, 296.000000, 104.000000
15257, 60.000000, 296.000000, 104.000000
15258, 64.000000, 296.000000, 104.000000
15259, 68.000000, 296.000000, 104.000000
15260, 72.000000, 296.000000, 104.000000
15261, 36.000000, 300.000000, 104.000000
15262, 40.000000, 300.000000, 104.000000
15263, 44.000000, 300.000000, 104.000000
15264, 48.000000, 300.000000, 104.000000
15265, 52.000000, 300.000000, 104.000000
15266, 56.000000, 300.000000, 104.000000
15267, 60.000000, 300.000000, 104.000000
15268, 64.000000, 300.000000, 104.000000
15269, 68.000000, 300.000000, 104.000000
15270, 72.000000, 300.000000, 104.000000
15271, 36.000000, 304.000000, 104.000000
15272, 40.000000, 304.000000, 104.000000
15273, 44.000000, 304.000000, 104.000000
15274, 48.000000, 304.000000, 104.000000
15275, 52.000000, 304.000000, 104.000000
15276, 56.000000, 304.000000, 104.000000
15277, 60.000000, 304.000000, 104.000000
15278, 64.000000, 304.000000, 104.000000
15279, 68.000000, 304.000000, 104.000000
15280, 72.000000, 304.000000, 104.000000
15281, 36.000000, 308.000000, 104.000000
15282, 40.000000, 308.000000, 104.000000
15283, 44.000000, 308.000000, 104.000000
15284, 48.000000, 308.000000, 104.000000
15285, 52.000000, 308.000000, 104.000000
15286, 56.000000, 308.000000, 104.000000
15287, 60.000000, 308.000000, 104.000000
15288, 64.000000, 308.000000, 104.000000
15289, 68.000000, 308.000000, 104.000000
15290, 72.000000, 308.000000, 104.000000
15291, 36.000000, 312.000000, 104.000000
15292, 40.000000, 312.000000, 104.000000
15293, 44.000000, 312.000000, 104.000000
15294, 48.000000, 312.000000, 104.000000
15295, 52.000000, 312.000000, 104.000000
15296, 56.000000, 312.000000, 104.000000
15297, 60.000000, 312.000000, 104.000000
15298, 64.000000, 312.000000, 104.000000
15299, 68.000000, 312.000000, 104.000000
15300, 72.000000, 312.000000, 104.000000
15301, 36.000000, 316.000000, 104.000000
15302, 40.000000, 316.000000, 104.000000
15303, 44.000000, 316.000000, 104.000000
15304, 48.000000, 316.000000, 104.000000
15305, 52.000000, 316.000000, 104.000000
15306, 56.000000, 316.000000, 104.000000
15307, 60.000000, 316.000000, 104.000000
15308, 64.000000, 316.000000, 104.000000
15309, 68.000000, 316.000000, 104.000000
15310, 72.000000, 316.000000, 104.000000
15311, 36.000000, 320.000000, 104.000000
15312, 40.000000, 320.000000, 104.000000
15313, 44.000000, 320.000000, 104.000000
15314, 48.000000, 320.000000, 104.000000
15315, 52.000000, 320.000000, 104.000000
15316, 56.000000, 320.000000, 104.000000
15317, 60.000000, 320.000000, 104.000000
15318, 64.000000, 320.000000, 104.000000
15319, 68.000000, 320.000000, 104.000000
15320, 72.000000, 320.000000, 104.000000
15321, 36.000000, 324.000000, 104.000000
15322, 40.000000, 324.000000, 104.000000
15323, 44.000000, 324.000000, 104.000000
15324, 48.000000, 324.000000, 104.000000
15325, 52.000000, 324.000000, 104.000000
15326, 56.000000, 324.000000, 104.000000
15327, 60.000000, 324.000000, 104.000000
15328, 64.000000, 324.000000, 104.000000
15329, 68.000000, 324.000000, 104.000000
15330, 72.000000, 324.000000, 104.000000
15331, 36.000000, 328.000000, 104.000000
15332, 40.000000, 328.000000, 104.000000
15333, 44.000000, 328.000000, 104.000000
15334, 48.000000, 328.000000, 104.000000
15335, 52.000000, 328.000000, 104.000000
15336, 56.000000, 328.000000, 104.000000
15337, 60.000000, 328.000000, 104.000000
15338, 64.000000, 328.000000, 104.000000
15339, 68.000000, 328.000000, 104.000000
15340, 72.000000, 328.000000, 104.000000
15341, 36.000000, 332.000000, 104.000000
15342, 40.000000, 332.000000, 104.000000
15343, 44.000000, 332.000000, 104.000000
15344, 48.000000, 332.000000, 104.000000
15345, 52.000000, 332.000000, 104.000000
15346, 56.000000, 332.000000, 104.000000
15347, 60.000000, 332.000000, 104.000000
15348, 64.000000, 332.000000, 104.000000
15349, 68.000000, 332.000000, 104.000000
15350, 72.000000, 332.000000, 104.000000
15351, 36.000000, 336.000000, 104.000000
15352, 40.000000, 336.000000, 104.000000
15353, 44.000000, 336.000000, 104.000000
15354, 48.000000, 336.000000, 104.000000
15355, 52.000000, 336.000000, 104.000000
15356, 56.000000, 336.000000, 104.000000
15357, 60.000000, 336.000000, 104.000000
15358, 64.000000, 336.000000, 104.000000
15359, 68.000000, 336.000000, 104.000000
15360, 72.000000, 336.000000, 104.000000
15361, 36.000000, 340.000000, 104.000000
15362, 40.000000, 340.000000, 104.000000
15363, 44.000000, 340.000000, 104.000000
15364, 48.000000, 340.000000, 104.000000
15365, 52.000000, 340.000000, 104.000000
15366, 56.000000, 340.000000, 104.000000
15367, 60.000000, 340.000000, 104.000000
15368, 64.000000, 340.000000, 104.000000
15369, 68.000000, 340.000000, 104.000000
15370, 72.000000, 340.000000, 104.000000
15371, 36.000000, 344.000000, 104.000000
15372, 40.000000, 344.000000, 104.000000
15373, 44.000000, 344.000000, 104.000000
15374, 48.000000, 344.000000, 104.000000
15375, 52.000000, 344.000000, 104.000000
15376, 56.000000, 344.000000, 104.000000
15377, 60.000000, 344.000000, 104.000000
15378, 64.000000, 344.000000, 104.000000
15379, 68.000000, 344.000000, 104.000000
15380, 72.000000, 344.000000, 104.000000
15381, 36.000000, 348.000000, 104.000000
15382, 40.000000, 348.000000, 104.000000
15383, 44.000000, 348.000000, 104.000000
15384, 48.000000, 348.000000, 104.000000
15385, 52.000000, 348.000000, 104.000000
15386, 56.000000, 348.000000, 104.000000
15387, 60.000000, 348.000000, 104.000000
15388, 64.000000, 348.000000, 104.000000
15389, 68.000000, 348.000000, 104.000000
15390, 72.000000, 348.000000, 104.000000
15391, 36.000000, 352.000000, 104.000000
15392, 40.000000, 352.000000, 104.000000
15393, 44.000000, 352.000000, 104.000000
15394, 48.000000, 352.000000, 104.000000
15395, 52.000000, 352.000000, 104.000000
15396, 56.000000, 352.000000, 104.000000
15397, 60.000000, 352.000000, 104.000000
15398, 64.000000, 352.000000, 104.000000
15399, 68.000000, 352.000000, 104.000000
15400, 72.000000, 352.000000, 104.000000
15401, 36.000000, 356.000000, 104.000000
15402, 40.000000, 356.000000, 104.000000
15403, 44.000000, 356.000000, 104.000000
15404, 48.000000, 356.000000, 104.000000
15405, 52.000000, 356.000000, 104.000000
15406, 56.000000, 356.000000, 104.000000
15407, 60.000000, 356.000000, 104.000000
15408, 64.000000, 356.000000, 104.000000
15409, 68.000000, 356.000000, 104.000000
15410, 72.000000, 356.000000, 104.000000
15411, 36.000000, 360.000000, 104.000000
15412, 40.000000, 360.000000, 104.000000
15413, 44.000000, 360.000000, 104.000000
15414, 48.000000, 360.000000, 104.000000
15415, 52.000000, 360.000000, 104.000000
15416, 56.000000, 360.000000, 104.000000
15417, 60.000000, 360.000000, 104.000000
15418, 64.000000, 360.000000, 104.000000
15419, 68.000000, 360.000000, 104.000000
15420, 72.000000, 360.000000, 104.000000
15421, 36.000000, 364.000000, 104.000000
15422, 40.000000, 364.000000, 104.000000
15423, 44.000000, 364.000000, 104.000000
15424, 48.000000, 364.000000, 104.000000
15425, 52.000000, 364.000000, 104.000000
15426, 56.000000, 364.000000, 104.000000
15427, 60.000000, 364.000000, 104.000000
15428, 64.000000, 364.000000, 104.000000
15429, 68.000000, 364.000000, 104.000000
15430, 72.000000, 364.000000, 104.000000
15431, 36.000000, 368.000000, 104.000000
15432, 40.000000, 368.000000, 104.000000
15433, 44.000000, 368.000000, 104.000000
15434, 48.000000, 368.000000, 104.000000
15435, 52.000000, 368.000000, 104.000000
15436, 56.000000, 368.000000, 104.000000
15437, 60.000000, 368.000000, 104.000000
15438, 64.000000, 368.000000, 104.000000
15439, 68.000000, 368.000000, 104.000000
15440, 72.000000, 368.000000, 104.000000
15441, 36.000000, 372.000000, 104.000000
15442, 40.000000, 372.000000, 104.000000
15443, 44.000000, 372.000000, 104.000000
15444, 48.000000, 372.000000, 104.000000
15445, 52.000000, 372.000000, 104.000000
15446, 56.000000, 372.000000, 104.000000
15447, 60.000000, 372.000000, 104.000000
15448, 64.000000, 372.000000, 104.000000
15449, 68.000000, 372.000000, 104.000000
15450, 72.000000, 372.000000, 104.000000
15451, 36.000000, 376.000000, 104.000000
15452, 40.000000, 376.000000, 104.000000
15453, 44.000000, 376.000000, 104.000000
15454, 48.000000, 376.000000, 104.000000
15455, 52.000000, 376.000000, 104.000000
15456, 56.000000, 376.000000, 104.000000
15457, 60.000000, 376.000000, 104.000000
15458, 64.000000, 376.000000, 104.000000
15459, 68.000000, 376.000000, 104.000000
15460, 72.000000, 376.000000, 104.000000
15461, 36.000000, 380.000000, 104.000000
15462, 40.000000, 380.000000, 104.000000
15463, 44.000000, 380.000000, 104.000000
15464, 48.000000, 380.000000, 104.000000
15465, 52.000000, 380.000000, 104.000000
15466, 56.000000, 380.000000, 104.000000
15467, 60.000000, 380.000000, 104.000000
15468, 64.000000, 380.000000, 104.000000
15469, 68.000000, 380.000000, 104.000000
15470, 72.000000, 380.000000, 104.000000
15471, 36.000000, 384.000000, 104.000000
15472, 40.000000, 384.000000, 104.000000
15473, 44.000000, 384.000000, 104.000000
15474, 48.000000, 384.000000, 104.000000
15475, 52.000000, 384.000000, 104.000000
15476, 56.000000, 384.000000, 104.000000
15477, 60.000000, 384.000000, 104.000000
15478, 64.000000, 384.000000, 104.000000
15479, 68.000000, 384.000000, 104.000000
15480, 72.000000, 384.000000, 104.000000
15481, 36.000000, 388.000000, 104.000000
15482, 40.000000, 388.000000, 104.000000
15483, 44.000000, 388.000000, 104.000000
15484, 48.000000, 388.000000, 104.000000
15485, 52.000000, 388.000000, 104.000000
15486, 56.000000, 388.000000, 104.000000
15487, 60.000000, 388.000000, 104.000000
15488, 64.000000, 388.000000, 104.000000
15489, 68.000000, 388.000000, 104.000000
15490, 72.000000, 388.000000, 104.000000
15491, 36.000000, 392.000000, 104.000000
15492, 40.000000, 392.000000, 104.000000
15493, 44.000000, 392.000000, 104.000000
15494, 48.000000, 392.000000, 104.000000
15495, 52.000000, 392.000000, 104.000000
15496, 56.000000, 392.000000, 104.000000
15497, 60.000000, 392.000000, 104.000000
15498, 64.000000, 392.000000, 104.000000
15499, 68.000000, 392.000000, 104.000000
15500, 72.000000, 392.000000, 104.000000
15501, 36.000000, 396.000000, 104.000000
15502, 40.000000, 396.000000, 104.000000
15503, 44.000000, 396.000000, 104.000000
15504, 48.000000, 396.000000, 104.000000
15505, 52.000000, 396.000000, 104.000000
15506, 56.000000, 396.000000, 104.000000
15507, 60.000000, 396.000000, 104.000000
15508, 64.000000, 396.000000, 104.000000
15509, 68.000000, 396.000000, 104.000000
15510, 72.000000, 396.000000, 104.000000
15511, 36.000000, 400.000000, 104.000000
15512, 40.000000, 400.000000, 104.000000
15513, 44.000000, 400.000000, 104.000000
15514, 48.000000, 400.000000, 104.000000
15515, 52.000000, 400.000000, 104.000000
15516, 56.000000, 400.000000, 104.000000
15517, 60.000000, 400.000000, 104.000000
15518, 64.000000, 400.000000, 104.000000
15519, 68.000000, 400.000000, 104.000000
15520, 72.000000, 400.000000, 104.000000
15521, 36.000000, 404.000000, 104.000000
15522, 40.000000, 404.000000, 104.000000
15523, 44.000000, 404.000000, 104.000000
15524, 48.000000, 404.000000, 104.000000
15525, 52.000000, 404.000000, 104.000000
15526, 56.000000, 404.000000, 104.000000
15527, 60.000000, 404.000000, 104.000000
15528, 64.000000, 404.000000, 104.000000
15529, 68.000000, 404.000000, 104.000000
15530, 72.000000, 404.000000, 104.000000
15531, 36.000000, 408.000000, 104.000000
15532, 40.000000, 408.000000, 104.000000
15533, 44.000000, 408.000000, 104.000000
15534, 48.000000, 408.000000, 104.000000
15535, 52.000000, 408.000000, 104.000000
15536, 56.000000, 408.000000, 104.000000
15537, 60.000000, 408.000000, 104.000000
15538, 64.000000, 408.000000, 104.000000
15539, 68.000000, 408.000000, 104.000000
15540, 72.000000, 408.000000, 104.000000
15541, 36.000000, 412.000000, 104.000000
15542, 40.000000, 412.000000, 104.000000
15543, 44.000000, 412.000000, 104.000000
15544, 48.000000, 412.000000, 104.000000
15545, 52.000000, 412.000000, 104.000000
15546, 56.000000, 412.000000, 104.000000
15547, 60.000000, 412.000000, 104.000000
15548, 64.000000, 412.000000, 104.000000
15549, 68.000000, 412.000000, 104.000000
15550, 72.000000, 412.000000, 104.000000
15551, 36.000000, 416.000000, 104.000000
15552, 40.000000, 416.000000, 104.000000
15553, 44.000000, 416.000000, 104.000000
15554, 48.000000, 416.000000, 104.000000
15555, 52.000000, 416.000000, 104.000000
15556, 56.000000, 416.000000, 104.000000
15557, 60.000000, 416.000000, 104.000000
15558, 64.000000, 416.000000, 104.000000
15559, 68.000000, 416.000000, 104.000000
15560, 72.000000, 416.000000, 104.000000
15561, 36.000000, 420.000000, 104.000000
15562, 40.000000, 420.000000, 104.000000
15563, 44.000000, 420.000000, 104.000000
15564, 48.000000, 420.000000, 104.000000
15565, 52.000000, 420.000000, 104.000000
15566, 56.000000, 420.000000, 104.000000
15567, 60.000000, 420.000000, 104.000000
15568, 64.000000, 420.000000, 104.000000
15569, 68.000000, 420.000000, 104.000000
15570, 72.000000, 420.000000, 104.000000
15571, 36.000000, 424.000000, 104.000000
15572, 40.000000, 424.000000, 104.000000
15573, 44.000000, 424.000000, 104.000000
15574, 48.000000, 424.000000, 104.000000
15575, 52.000000, 424.000000, 104.000000
15576, 56.000000, 424.000000, 104.000000
15577, 60.000000, 424.000000, 104.000000
15578, 64.000000, 424.000000, 104.000000
15579, 68.000000, 424.000000, 104.000000
15580, 72.000000, 424.000000, 104.000000
15581, 36.000000, 428.000000, 104.000000
15582, 40.000000, 428.000000, 104.000000
15583, 44.000000, 428.000000, 104.000000
15584, 48.000000, 428.000000, 104.000000
15585, 52.000000, 428.000000, 104.000000
15586, 56.000000, 428.000000, 104.000000
15587, 60.000000, 428.000000, 104.000000
15588, 64.000000, 428.000000, 104.000000
15589, 68.000000, 428.000000, 104.000000
15590, 72.000000, 428.000000, 104.000000
15591, 36.000000, 432.000000, 104.000000
15592, 40.000000, 432.000000, 104.000000
15593, 44.000000, 432.000000, 104.000000
15594, 48.000000, 432.000000, 104.000000
15595, 52.000000, 432.000000, 104.000000
15596, 56.000000, 432.000000, 104.000000
15597, 60.000000, 432.000000, 104.000000
15598, 64.000000, 432.000000, 104.000000
15599, 68.000000, 432.000000, 104.000000
15600, 72.000000, 432.000000, 104.000000
15601, 36.000000, 436.000000, 104.000000
15602, 40.000000, 436.000000, 104.000000
15603, 44.000000, 436.000000, 104.000000
15604, 48.000000, 436.000000, 104.000000
15605, 52.000000, 436.000000, 104.000000
15606, 56.000000, 436.000000, 104.000000
15607, 60.000000, 436.000000, 104.000000
15608, 64.000000, 436.000000, 104.000000
15609, 68.000000, 436.000000, 104.000000
15610, 72.000000, 436.000000, 104.000000
15611, 36.000000, 440.000000, 104.000000
15612, 40.000000, 440.000000, 104.000000
15613, 44.000000, 440.000000, 104.000000
15614, 48.000000, 440.000000, 104.000000
15615, 52.000000, 440.000000, 104.000000
15616, 56.000000, 440.000000, 104.000000
15617, 60.000000, 440.000000, 104.000000
15618, 64.000000, 440.000000, 104.000000
15619, 68.000000, 440.000000, 104.000000
15620, 72.000000, 440.000000, 104.000000
15621, 36.000000, 444.000000, 104.000000
15622, 40.000000, 444.000000, 104.000000
15623, 44.000000, 444.000000, 104.000000
15624, 48.000000, 444.000000, 104.000000
15625, 52.000000, 444.000000, 104.000000
15626, 56.000000, 444.000000, 104.000000
15627, 60.000000, 444.000000, 104.000000
15628, 64.000000, 444.000000, 104.000000
15629, 68.000000, 444.000000, 104.000000
15630, 72.000000, 444.000000, 104.000000
15631, 36.000000, 448.000000, 104.000000
15632, 40.000000, 448.000000, 104.000000
15633, 44.000000, 448.000000, 104.000000
15634, 48.000000, 448.000000, 104.000000
15635, 52.000000, 448.000000, 104.000000
15636, 56.000000, 448.000000, 104.000000
15637, 60.000000, 448.000000, 104.000000
15638, 64.000000, 448.000000, 104.000000
15639, 68.000000, 448.000000, 104.000000
15640, 72.000000, 448.000000, 104.000000
15641, 36.000000, 452.000000, 104.000000
15642, 40.000000, 452.000000, 104.000000
15643, 44.000000, 452.000000, 104.000000
15644, 48.000000, 452.000000, 104.000000
15645, 52.000000, 452.000000, 104.000000
15646, 56.000000, 452.000000, 104.000000
15647, 60.000000, 452.000000, 104.000000
15648, 64.000000, 452.000000, 104.000000
15649, 68.000000, 452.000000, 104.000000
15650, 72.000000, 452.000000, 104.000000
15651, 36.000000, 456.000000, 104.000000
15652, 40.000000, 456.000000, 104.000000
15653, 44.000000, 456.000000, 104.000000
15654, 48.000000, 456.000000, 104.000000
15655, 52.000000, 456.000000, 104.000000
15656, 56.000000, 456.000000, 104.000000
15657, 60.000000, 456.000000, 104.000000
15658, 64.000000, 456.000000, 104.000000
15659, 68.000000, 456.000000, 104.000000
15660, 72.000000, 456.000000, 104.000000
15661, 36.000000, 228.000000, 108.000000
15662, 40.000000, 228.000000, 108.000000
15663, 44.000000, 228.000000, 108.000000
15664, 48.000000, 228.000000, 108.000000
15665, 52.000000, 228.000000, 108.000000
15666, 56.000000, 228.000000, 108.000000
15667, 60.000000, 228.000000, 108.000000
15668, 64.000000, 228.000000, 108.000000
15669, 68.000000, 228.000000, 108.000000
15670, 72.000000, 228.000000, 108.000000
15671, 36.000000, 232.000000, 108.000000
15672, 40.000000, 232.000000, 108.000000
15673, 44.000000, 232.000000, 108.000000
15674, 48.000000, 232.000000, 108.000000
15675, 52.000000, 232.000000, 108.000000
15676, 56.000000, 232.000000, 108.000000
15677, 60.000000, 232.000000, 108.000000
15678, 64.000000, 232.000000, 108.000000
15679, 68.000000, 232.000000, 108.000000
15680, 72.000000, 232.000000, 108.000000
15681, 36.000000, 236.000000, 108.000000
15682, 40.000000, 236.000000, 108.000000
15683, 44.000000, 236.000000, 108.000000
15684, 48.000000, 236.000000, 108.000000
15685, 52.000000, 236.000000, 108.000000
15686, 56.000000, 236.000000, 108.000000
15687, 60.000000, 236.000000, 108.000000
15688, 64.000000, 236.000000, 108.000000
15689, 68.000000, 236.000000, 108.000000
15690, 72.000000, 236.000000, 108.000000
15691, 36.000000, 240.000000, 108.000000
15692, 40.000000, 240.000000, 108.000000
15693, 44.000000, 240.000000, 108.000000
15694, 48.000000, 240.000000, 108.000000
15695, 52.000000, 240.000000, 108.000000
15696, 56.000000, 240.000000, 108.000000
15697, 60.000000, 240.000000, 108.000000
15698, 64.000000, 240.000000, 108.000000
15699, 68.000000, 240.000000, 108.000000
15700, 72.000000, 240.000000, 108.000000
15701, 36.000000, 244.000000, 108.000000
15702, 40.000000, 244.000000, 108.000000
15703, 44.000000, 244.000000, 108.000000
15704, 48.000000, 244.000000, 108.000000
15705, 52.000000, 244.000000, 108.000000
15706, 56.000000, 244.000000, 108.000000
15707, 60.000000, 244.000000, 108.000000
15708, 64.000000, 244.000000, 108.000000
15709, 68.000000, 244.000000, 108.000000
15710, 72.000000, 244.000000, 108.000000
15711, 36.000000, 248.000000, 108.000000
15712, 40.000000, 248.000000, 108.000000
15713, 44.000000, 248.000000, 108.000000
15714, 48.000000, 248.000000, 108.000000
15715, 52.000000, 248.000000, 108.000000
15716, 56.000000, 248.000000, 108.000000
15717, 60.000000, 248.000000, 108.000000
15718, 64.000000, 248.000000, 108.000000
15719, 68.000000, 248.000000, 108.000000
15720, 72.000000, 248.000000, 108.000000
15721, 36.000000, 252.000000, 108.000000
15722, 40.000000, 252.000000, 108.000000
15723, 44.000000, 252.000000, 108.000000
15724, 48.000000, 252.000000, 108.000000
15725, 52.000000, 252.000000, 108.000000
15726, 56.000000, 252.000000, 108.000000
15727, 60.000000, 252.000000, 108.000000
15728, 64.000000, 252.000000, 108.000000
15729, 68.000000, 252.000000, 108.000000
15730, 72.000000, 252.000000, 108.000000
15731, 36.000000, 256.000000, 108.000000
15732, 40.000000, 256.000000, 108.000000
15733, 44.000000, 256.000000, 108.000000
15734, 48.000000, 256.000000, 108.000000
15735, 52.000000, 256.000000, 108.000000
15736, 56.000000, 256.000000, 108.000000
15737, 60.000000, 256.000000, 108.000000
15738, 64.000000, 256.000000, 108.000000
15739, 68.000000, 256.000000, 108.000000
15740, 72.000000, 256.000000, 108.000000
15741, 36.000000, 260.000000, 108.000000
15742, 40.000000, 260.000000, 108.000000
15743, 44.000000, 260.000000, 108.000000
15744, 48.000000, 260.000000, 108.000000
15745, 52.000000, 260.000000, 108.000000
15746, 56.000000, 260.000000, 108.000000
15747, 60.000000, 260.000000, 108.000000
15748, 64.000000, 260.000000, 108.000000
15749, 68.000000, 260.000000, 108.000000
15750, 72.000000, 260.000000, 108.000000
15751, 36.000000, 264.000000, 108.000000
15752, 40.000000, 264.000000, 108.000000
15753, 44.000000, 264.000000, 108.000000
15754, 48.000000, 264.000000, 108.000000
15755, 52.000000, 264.000000, 108.000000
15756, 56.000000, 264.000000, 108.000000
15757, 60.000000, 264.000000, 108.000000
15758, 64.000000, 264.000000, 108.000000
15759, 68.000000, 264.000000, 108.000000
15760, 72.000000, 264.000000, 108.000000
15761, 36.000000, 268.000000, 108.000000
15762, 40.000000, 268.000000, 108.000000
15763, 44.000000, 268.000000, 108.000000
15764, 48.000000, 268.000000, 108.000000
15765, 52.000000, 268.000000, 108.000000
15766, 56.000000, 268.000000, 108.000000
15767, 60.000000, 268.000000, 108.000000
15768, 64.000000, 268.000000, 108.000000
15769, 68.000000, 268.000000, 108.000000
15770, 72.000000, 268.000000, 108.000000
15771, 36.000000, 272.000000, 108.000000
15772, 40.000000, 272.000000, 108.000000
15773, 44.000000, 272.000000, 108.000000
15774, 48.000000, 272.000000, 108.000000
15775, 52.000000, 272.000000, 108.000000
15776, 56.000000, 272.000000, 108.000000
15777, 60.000000, 272.000000, 108.000000
15778, 64.000000, 272.000000, 108.000000
15779, 68.000000, 272.000000, 108.000000
15780, 72.000000, 272.000000, 108.000000
15781, 36.000000, 276.000000, 108.000000
15782, 40.000000, 276.000000, 108.000000
15783, 44.000000, 276.000000, 108.000000
15784, 48.000000, 276.000000, 108.000000
15785, 52.000000, 276.000000, 108.000000
15786, 56.000000, 276.000000, 108.000000
15787, 60.000000, 276.000000, 108.000000
15788, 64.000000, 276.000000, 108.000000
15789, 68.000000, 276.000000, 108.000000
15790, 72.000000, 276.000000, 108.000000
15791, 36.000000, 280.000000, 108.000000
15792, 40.000000, 280.000000, 108.000000
15793, 44.000000, 280.000000, 108.000000
15794, 48.000000, 280.000000, 108.000000
15795, 52.000000, 280.000000, 108.000000
15796, 56.000000, 280.000000, 108.000000
15797, 60.000000, 280.000000, 108.000000
15798, 64.000000, 280.000000, 108.000000
15799, 68.000000, 280.000000, 108.000000
15800, 72.000000, 280.000000, 108.000000
15801, 36.000000, 284.000000, 108.000000
15802, 40.000000, 284.000000, 108.000000
15803, 44.000000, 284.000000, 108.000000
15804, 48.000000, 284.000000, 108.000000
15805, 52.000000, 284.000000, 108.000000
15806, 56.000000, 284.000000, 108.000000
15807, 60.000000, 284.000000, 108.000000
15808, 64.000000, 284.000000, 108.000000
15809, 68.000000, 284.000000, 108.000000
15810, 72.000000, 284.000000, 108.000000
15811, 36.000000, 288.000000, 108.000000
15812, 40.000000, 288.000000, 108.000000
15813, 44.000000, 288.000000, 108.000000
15814, 48.000000, 288.000000, 108.000000
15815, 52.000000, 288.000000, 108.000000
15816, 56.000000, 288.000000, 108.000000
15817, 60.000000, 288.000000, 108.000000
15818, 64.000000, 288.000000, 108.000000
15819, 68.000000, 288.000000, 108.000000
15820, 72.000000, 288.000000, 108.000000
15821, 36.000000, 292.000000, 108.000000
15822, 40.000000, 292.000000, 108.000000
15823, 44.000000, 292.000000, 108.000000
15824, 48.000000, 292.000000, 108.000000
15825, 52.000000, 292.000000, 108.000000
15826, 56.000000, 292.000000, 108.000000
15827, 60.000000, 292.000000, 108.000000
15828, 64.000000, 292.000000, 108.000000
15829, 68.000000, 292.000000, 108.000000
15830, 72.000000, 292.000000, 108.000000
15831, 36.000000, 296.000000, 108.000000
15832, 40.000000, 296.000000, 108.000000
15833, 44.000000, 296.000000, 108.000000
15834, 48.000000, 296.000000, 108.000000
15835, 52.000000, 296.000000, 108.000000
15836, 56.000000, 296.000000, 108.000000
15837, 60.000000, 296.000000, 108.000000
15838, 64.000000, 296.000000, 108.000000
15839, 68.000000, 296.000000, 108.000000
15840, 72.000000, 296.000000, 108.000000
15841, 36.000000, 300.000000, 108.000000
15842, 40.000000, 300.000000, 108.000000
15843, 44.000000, 300.000000, 108.000000
15844, 48.000000, 300.000000, 108.000000
15845, 52.000000, 300.000000, 108.000000
15846, 56.000000, 300.000000, 108.000000
15847, 60.000000, 300.000000, 108.000000
15848, 64.000000, 300.000000, 108.000000
15849, 68.000000, 300.000000, 108.000000
15850, 72.000000, 300.000000, 108.000000
15851, 36.000000, 304.000000, 108.000000
15852, 40.000000, 304.000000, 108.000000
15853, 44.000000, 304.000000, 108.000000
15854, 48.000000, 304.000000, 108.000000
15855, 52.000000, 304.000000, 108.000000
15856, 56.000000, 304.000000, 108.000000
15857, 60.000000, 304.000000, 108.000000
15858, 64.000000, 304.000000, 108.000000
15859, 68.000000, 304.000000, 108.000000
15860, 72.000000, 304.000000, 108.000000
15861, 36.000000, 308.000000, 108.000000
15862, 40.000000, 308.000000, 108.000000
15863, 44.000000, 308.000000, 108.000000
15864, 48.000000, 308.000000, 108.000000
15865, 52.000000, 308.000000, 108.000000
15866, 56.000000, 308.000000, 108.000000
15867, 60.000000, 308.000000, 108.000000
15868, 64.000000, 308.000000, 108.000000
15869, 68.000000, 308.000000, 108.000000
15870, 72.000000, 308.000000, 108.000000
15871, 36.000000, 312.000000, 108.000000
15872, 40.000000, 312.000000, 108.000000
15873, 44.000000, 312.000000, 108.000000
15874, 48.000000, 312.000000, 108.000000
15875, 52.000000, 312.000000, 108.000000
15876, 56.000000, 312.000000, 108.000000
15877, 60.000000, 312.000000, 108.000000
15878, 64.000000, 312.000000, 108.000000
15879, 68.000000, 312.000000, 108.000000
15880, 72.000000, 312.000000, 108.000000
15881, 36.000000, 316.000000, 108.000000
15882, 40.000000, 316.000000, 108.000000
15883, 44.000000, 316.000000, 108.000000
15884, 48.000000, 316.000000, 108.000000
15885, 52.000000, 316.000000, 108.000000
15886, 56.000000, 316.000000, 108.000000
15887, 60.000000, 316.000000, 108.000000
15888, 64.000000, 316.000000, 108.000000
15889, 68.000000, 316.000000, 108.000000
15890, 72.000000, 316.000000, 108.000000
15891, 36.000000, 320.000000, 108.000000
15892, 40.000000, 320.000000, 108.000000
15893, 44.000000, 320.000000, 108.000000
15894, 48.000000, 320.000000, 108.000000
15895, 52.000000, 320.000000, 108.000000
15896, 56.000000, 320.000000, 108.000000
15897, 60.000000, 320.000000, 108.000000
15898, 64.000000, 320.000000, 108.000000
15899, 68.000000, 320.000000, 108.000000
15900, 72.000000, 320.000000, 108.000000
15901, 36.000000, 324.000000, 108.000000
15902, 40.000000, 324.000000, 108.000000
15903, 44.000000, 324.000000, 108.000000
15904, 48.000000, 324.000000, 108.000000
15905, 52.000000, 324.000000, 108.000000
15906, 56.000000, 324.000000, 108.000000
15907, 60.000000, 324.000000, 108.000000
15908, 64.000000, 324.000000, 108.000000
15909, 68.000000, 324.000000, 108.000000
15910, 72.000000, 324.000000, 108.000000
15911, 36.000000, 328.000000, 108.000000
15912, 40.000000, 328.000000, 108.000000
15913, 44.000000, 328.000000, 108.000000
15914, 48.000000, 328.000000, 108.000000
15915, 52.000000, 328.000000, 108.000000
15916, 56.000000, 328.000000, 108.000000
15917, 60.000000, 328.000000, 108.000000
15918, 64.000000, 328.000000, 108.000000
15919, 68.000000, 328.000000, 108.000000
15920, 72.000000, 328.000000, 108.000000
15921, 36.000000, 332.000000, 108.000000
15922, 40.000000, 332.000000, 108.000000
15923, 44.000000, 332.000000, 108.000000
15924, 48.000000, 332.000000, 108.000000
15925, 52.000000, 332.000000, 108.000000
15926, 56.000000, 332.000000, 108.000000
15927, 60.000000, 332.000000, 108.000000
15928, 64.000000, 332.000000, 108.000000
15929, 68.000000, 332.000000, 108.000000
15930, 72.000000, 332.000000, 108.000000
15931, 36.000000, 336.000000, 108.000000
15932, 40.000000, 336.000000, 108.000000
15933, 44.000000, 336.000000, 108.000000
15934, 48.000000, 336.000000, 108.000000
15935, 52.000000, 336.000000, 108.000000
15936, 56.000000, 336.000000, 108.000000
15937, 60.000000, 336.000000, 108.000000
15938, 64.000000, 336.000000, 108.000000
15939, 68.000000, 336.000000, 108.000000
15940, 72.000000, 336.000000, 108.000000
15941, 36.000000, 340.000000, 108.000000
15942, 40.000000, 340.000000, 108.000000
15943, 44.000000, 340.000000, 108.000000
15944, 48.000000, 340.000000, 108.000000
15945, 52.000000, 340.000000, 108.000000
15946, 56.000000, 340.000000, 108.000000
15947, 60.000000, 340.000000, 108.000000
15948, 64.000000, 340.000000, 108.000000
15949, 68.000000, 340.000000, 108.000000
15950, 72.000000, 340.000000, 108.000000
15951, 36.000000, 344.000000, 108.000000
15952, 40.000000, 344.000000, 108.000000
15953, 44.000000, 344.000000, 108.000000
15954, 48.000000, 344.000000, 108.000000
15955, 52.000000, 344.000000, 108.000000
15956, 56.000000, 344.000000, 108.000000
15957, 60.000000, 344.000000, 108.000000
15958, 64.000000, 344.000000, 108.000000
15959, 68.000000, 344.000000, 108.000000
15960, 72.000000, 344.000000, 108.000000
15961, 36.000000, 348.000000, 108.000000
15962, 40.000000, 348.000000, 108.000000
15963, 44.000000, 348.000000, 108.000000
15964, 48.000000, 348.000000, 108.000000
15965, 52.000000, 348.000000, 108.000000
15966, 56.000000, 348.000000, 108.000000
15967, 60.000000, 348.000000, 108.000000
15968, 64.000000, 348.000000, 108.000000
15969, 68.000000, 348.000000, 108.000000
15970, 72.000000, 348.000000, 108.000000
15971, 36.000000, 352.000000, 108.000000
15972, 40.000000, 352.000000, 108.000000
15973, 44.000000, 352.000000, 108.000000
15974, 48.000000, 352.000000, 108.000000
15975, 52.000000, 352.000000, 108.000000
15976, 56.000000, 352.000000, 108.000000
15977, 60.000000, 352.000000, 108.000000
15978, 64.000000, 352.000000, 108.000000
15979, 68.000000, 352.000000, 108.000000
15980, 72.000000, 352.000000, 108.000000
15981, 36.000000, 356.000000, 108.000000
15982, 40.000000, 356.000000, 108.000000
15983, 44.000000, 356.000000, 108.000000
15984, 48.000000, 356.000000, 108.000000
15985, 52.000000, 356.000000, 108.000000
15986, 56.000000, 356.000000, 108.000000
15987, 60.000000, 356.000000, 108.000000
15988, 64.000000, 356.000000, 108.000000
15989, 68.000000, 356.000000, 108.000000
15990, 72.000000, 356.000000, 108.000000
15991, 36.000000, 360.000000, 108.000000
15992, 40.000000, 360.000000, 108.000000
15993, 44.000000, 360.000000, 108.000000
15994, 48.000000, 360.000000, 108.000000
15995, 52.000000, 360.000000, 108.000000
15996, 56.000000, 360.000000, 108.000000
15997, 60.000000, 360.000000, 108.000000
15998, 64.000000, 360.000000, 108.000000
15999, 68.000000, 360.000000, 108.000000
16000, 72.000000, 360.000000, 108.000000
16001, 36.000000, 364.000000, 108.000000
16002, 40.000000, 364.000000, 108.000000
16003, 44.000000, 364.000000, 108.000000
16004, 48.000000, 364.000000, 108.000000
16005, 52.000000, 364.000000, 108.000000
16006, 56.000000, 364.000000, 108.000000
16007, 60.000000, 364.000000, 108.000000
16008, 64.000000, 364.000000, 108.000000
16009, 68.000000, 364.000000, 108.000000
16010, 72.000000, 364.000000, 108.000000
16011, 36.000000, 368.000000, 108.000000
16012, 40.000000, 368.000000, 108.000000
16013, 44.000000, 368.000000, 108.000000
16014, 48.000000, 368.000000, 108.000000
16015, 52.000000, 368.000000, 108.000000
16016, 56.000000, 368.000000, 108.000000
16017, 60.000000, 368.000000, 108.000000
16018, 64.000000, 368.000000, 108.000000
16019, 68.000000, 368.000000, 108.000000
16020, 72.000000, 368.000000, 108.000000
16021, 36.000000, 372.000000, 108.000000
16022, 40.000000, 372.000000, 108.000000
16023, 44.000000, 372.000000, 108.000000
16024, 48.000000, 372.000000, 108.000000
16025, 52.000000, 372.000000, 108.000000
16026, 56.000000, 372.000000, 108.000000
16027, 60.000000, 372.000000, 108.000000
16028, 64.000000, 372.000000, 108.000000
16029, 68.000000, 372.000000, 108.000000
16030, 72.000000, 372.000000, 108.000000
16031, 36.000000, 376.000000, 108.000000
16032, 40.000000, 376.000000, 108.000000
16033, 44.000000, 376.000000, 108.000000
16034, 48.000000, 376.000000, 108.000000
16035, 52.000000, 376.000000, 108.000000
16036, 56.000000, 376.000000, 108.000000
16037, 60.000000, 376.000000, 108.000000
16038, 64.000000, 376.000000, 108.000000
16039, 68.000000, 376.000000, 108.000000
16040, 72.000000, 376.000000, 108.000000
16041, 36.000000, 380.000000, 108.000000
16042, 40.000000, 380.000000, 108.000000
16043, 44.000000, 380.000000, 108.000000
16044, 48.000000, 380.000000, 108.000000
16045, 52.000000, 380.000000, 108.000000
16046, 56.000000, 380.000000, 108.000000
16047, 60.000000, 380.000000, 108.000000
16048, 64.000000, 380.000000, 108.000000
16049, 68.000000, 380.000000, 108.000000
16050, 72.000000, 380.000000, 108.000000
16051, 36.000000, 384.000000, 108.000000
16052, 40.000000, 384.000000, 108.000000
16053, 44.000000, 384.000000, 108.000000
16054, 48.000000, 384.000000, 108.000000
16055, 52.000000, 384.000000, 108.000000
16056, 56.000000, 384.000000, 108.000000
16057, 60.000000, 384.000000, 108.000000
16058, 64.000000, 384.000000, 108.000000
16059, 68.000000, 384.000000, 108.000000
16060, 72.000000, 384.000000, 108.000000
16061, 36.000000, 388.000000, 108.000000
16062, 40.000000, 388.000000, 108.000000
16063, 44.000000, 388.000000, 108.000000
16064, 48.000000, 388.000000, 108.000000
16065, 52.000000, 388.000000, 108.000000
16066, 56.000000, 388.000000, 108.000000
16067, 60.000000, 388.000000, 108.000000
16068, 64.000000, 388.000000, 108.000000
16069, 68.000000, 388.000000, 108.000000
16070, 72.000000, 388.000000, 108.000000
16071, 36.000000, 392.000000, 108.000000
16072, 40.000000, 392.000000, 108.000000
16073, 44.000000, 392.000000, 108.000000
16074, 48.000000, 392.000000, 108.000000
16075, 52.000000, 392.000000, 108.000000
16076, 56.000000, 392.000000, 108.000000
16077, 60.000000, 392.000000, 108.000000
16078, 64.000000, 392.000000, 108.000000
16079, 68.000000, 392.000000, 108.000000
16080, 72.000000, 392.000000, 108.000000
16081, 36.000000, 396.000000, 108.000000
16082, 40.000000, 396.000000, 108.000000
16083, 44.000000, 396.000000, 108.000000
16084, 48.000000, 396.000000, 108.000000
16085, 52.000000, 396.000000, 108.000000
16086, 56.000000, 396.000000, 108.000000
16087, 60.000000, 396.000000, 108.000000
16088, 64.000000, 396.000000, 108.000000
16089, 68.000000, 396.000000, 108.000000
16090, 72.000000, 396.000000, 108.000000
16091, 36.000000, 400.000000, 108.000000
16092, 40.000000, 400.000000, 108.000000
16093, 44.000000, 400.000000, 108.000000
16094, 48.000000, 400.000000, 108.000000
16095, 52.000000, 400.000000, 108.000000
16096, 56.000000, 400.000000, 108.000000
16097, 60.000000, 400.000000, 108.000000
16098, 64.000000, 400.000000, 108.000000
16099, 68.000000, 400.000000, 108.000000
16100, 72.000000, 400.000000, 108.000000
16101, 36.000000, 404.000000, 108.000000
16102, 40.000000, 404.000000, 108.000000
16103, 44.000000, 404.000000, 108.000000
16104, 48.000000, 404.000000, 108.000000
16105, 52.000000, 404.000000, 108.000000
16106, 56.000000, 404.000000, 108.000000
16107, 60.000000, 404.000000, 108.000000
16108, 64.000000, 404.000000, 108.000000
16109, 68.000000, 404.000000, 108.000000
16110, 72.000000, 404.000000, 108.000000
16111, 36.000000, 408.000000, 108.000000
16112, 40.000000, 408.000000, 108.000000
16113, 44.000000, 408.000000, 108.000000
16114, 48.000000, 408.000000, 108.000000
16115, 52.000000, 408.000000, 108.000000
16116, 56.000000, 408.000000, 108.000000
16117, 60.000000, 408.000000, 108.000000
16118, 64.000000, 408.000000, 108.000000
16119, 68.000000, 408.000000, 108.000000
16120, 72.000000, 408.000000, 108.000000
16121, 36.000000, 412.000000, 108.000000
16122, 40.000000, 412.000000, 108.000000
16123, 44.000000, 412.000000, 108.000000
16124, 48.000000, 412.000000, 108.000000
16125, 52.000000, 412.000000, 108.000000
16126, 56.000000, 412.000000, 108.000000
16127, 60.000000, 412.000000, 108.000000
16128, 64.000000, 412.000000, 108.000000
16129, 68.000000, 412.000000, 108.000000
16130, 72.000000, 412.000000, 108.000000
16131, 36.000000, 416.000000, 108.000000
16132, 40.000000, 416.000000, 108.000000
16133, 44.000000, 416.000000, 108.000000
16134, 48.000000, 416.000000, 108.000000
16135, 52.000000, 416.000000, 108.000000
16136, 56.000000, 416.000000, 108.000000
16137, 60.000000, 416.000000, 108.000000
16138, 64.000000, 416.000000, 108.000000
16139, 68.000000, 416.000000, 108.000000
16140, 72.000000, 416.000000, 108.000000
16141, 36.000000, 420.000000, 108.000000
16142, 40.000000, 420.000000, 108.000000
16143, 44.000000, 420.000000, 108.000000
16144, 48.000000, 420.000000, 108.000000
16145, 52.000000, 420.000000, 108.000000
16146, 56.000000, 420.000000, 108.000000
16147, 60.000000, 420.000000, 108.000000
16148, 64.000000, 420.000000, 108.000000
16149, 68.000000, 420.000000, 108.000000
16150, 72.000000, 420.000000, 108.000000
16151, 36.000000, 424.000000, 108.000000
16152, 40.000000, 424.000000, 108.000000
16153, 44.000000, 424.000000, 108.000000
16154, 48.000000, 424.000000, 108.000000
16155, 52.000000, 424.000000, 108.000000
16156, 56.000000, 424.000000, 108.000000
16157, 60.000000, 424.000000, 108.000000
16158, 64.000000, 424.000000, 108.000000
16159, 68.000000, 424.000000, 108.000000
16160, 72.000000, 424.000000, 108.000000
16161, 36.000000, 428.000000, 108.000000
16162, 40.000000, 428.000000, 108.000000
16163, 44.000000, 428.000000, 108.000000
16164, 48.000000, 428.000000, 108.000000
16165, 52.000000, 428.000000, 108.000000
16166, 56.000000, 428.000000, 108.000000
16167, 60.000000, 428.000000, 108.000000
16168, 64.000000, 428.000000, 108.000000
16169, 68.000000, 428.000000, 108.000000
16170, 72.000000, 428.000000, 108.000000
16171, 36.000000, 432.000000, 108.000000
16172, 40.000000, 432.000000, 108.000000
16173, 44.000000, 432.000000, 108.000000
16174, 48.000000, 432.000000, 108.000000
16175, 52.000000, 432.000000, 108.000000
16176, 56.000000, 432.000000, 108.000000
16177, 60.000000, 432.000000, 108.000000
16178, 64.000000, 432.000000, 108.000000
16179, 68.000000, 432.000000, 108.000000
16180, 72.000000, 432.000000, 108.000000
16181, 36.000000, 436.000000, 108.000000
16182, 40.000000, 436.000000, 108.000000
16183, 44.000000, 436.000000, 108.000000
16184, 48.000000, 436.000000, 108.000000
16185, 52.000000, 436.000000, 108.000000
16186, 56.000000, 436.000000, 108.000000
16187, 60.000000, 436.000000, 108.000000
16188, 64.000000, 436.000000, 108.000000
16189, 68.000000, 436.000000, 108.000000
16190, 72.000000, 436.000000, 108.000000
16191, 36.000000, 440.000000, 108.000000
16192, 40.000000, 440.000000, 108.000000
16193, 44.000000, 440.000000, 108.000000
16194, 48.000000, 440.000000, 108.000000
16195, 52.000000, 440.000000, 108.000000
16196, 56.000000, 440.000000, 108.000000
16197, 60.000000, 440.000000, 108.000000
16198, 64.000000, 440.000000, 108.000000
16199, 68.000000, 440.000000, 108.000000
16200, 72.000000, 440.000000, 108.000000
16201, 36.000000, 444.000000, 108.000000
16202, 40.000000, 444.000000, 108.000000
16203, 44.000000, 444.000000, 108.000000
16204, 48.000000, 444.000000, 108.000000
16205, 52.000000, 444.000000, 108.000000
16206, 56.000000, 444.000000, 108.000000
16207, 60.000000, 444.000000, 108.000000
16208, 64.000000, 444.000000, 108.000000
16209, 68.000000, 444.000000, 108.000000
16210, 72.000000, 444.000000, 108.000000
16211, 36.000000, 448.000000, 108.000000
16212, 40.000000, 448.000000, 108.000000
16213, 44.000000, 448.000000, 108.000000
16214, 48.000000, 448.000000, 108.000000
16215, 52.000000, 448.000000, 108.000000
16216, 56.000000, 448.000000, 108.000000
16217, 60.000000, 448.000000, 108.000000
16218, 64.000000, 448.000000, 108.000000
16219, 68.000000, 448.000000, 108.000000
16220, 72.000000, 448.000000, 108.000000
16221, 36.000000, 452.000000, 108.000000
16222, 40.000000, 452.000000, 108.000000
16223, 44.000000, 452.000000, 108.000000
16224, 48.000000, 452.000000, 108.000000
16225, 52.000000, 452.000000, 108.000000
16226, 56.000000, 452.000000, 108.000000
16227, 60.000000, 452.000000, 108.000000
16228, 64.000000, 452.000000, 108.000000
16229, 68.000000, 452.000000, 108.000000
16230, 72.000000, 452.000000, 108.000000
16231, 36.000000, 456.000000, 108.000000
16232, 40.000000, 456.000000, 108.000000
16233, 44.000000, 456.000000, 108.000000
16234, 48.000000, 456.000000, 108.000000
16235, 52.000000, 456.000000, 108.000000
16236, 56.000000, 456.000000, 108.000000
16237, 60.000000, 456.000000, 108.000000
16238, 64.000000, 456.000000, 108.000000
16239, 68.000000, 456.000000, 108.000000
16240, 72.000000, 456.000000, 108.000000
16241, 36.000000, 228.000000, 112.000000
16242, 40.000000, 228.000000, 112.000000
16243, 44.000000, 228.000000, 112.000000
16244, 48.000000, 228.000000, 112.000000
16245, 52.000000, 228.000000, 112.000000
16246, 56.000000, 228.000000, 112.000000
16247, 60.000000, 228.000000, 112.000000
16248, 64.000000, 228.000000, 112.000000
16249, 68.000000, 228.000000, 112.000000
16250, 72.000000, 228.000000, 112.000000
16251, 36.000000, 232.000000, 112.000000
16252, 40.000000, 232.000000, 112.000000
16253, 44.000000, 232.000000, 112.000000
16254, 48.000000, 232.000000, 112.000000
16255, 52.000000, 232.000000, 112.000000
16256, 56.000000, 232.000000, 112.000000
16257, 60.000000, 232.000000, 112.000000
16258, 64.000000, 232.000000, 112.000000
16259, 68.000000, 232.000000, 112.000000
16260, 72.000000, 232.000000, 112.000000
16261, 36.000000, 236.000000, 112.000000
16262, 40.000000, 236.000000, 112.000000
16263, 44.000000, 236.000000, 112.000000
16264, 48.000000, 236.000000, 112.000000
16265, 52.000000, 236.000000, 112.000000
16266, 56.000000, 236.000000, 112.000000
16267, 60.000000, 236.000000, 112.000000
16268, 64.000000, 236.000000, 112.000000
16269, 68.000000, 236.000000, 112.000000
16270, 72.000000, 236.000000, 112.000000
16271, 36.000000, 240.000000, 112.000000
16272, 40.000000, 240.000000, 112.000000
16273, 44.000000, 240.000000, 112.000000
16274, 48.000000, 240.000000, 112.000000
16275, 52.000000, 240.000000, 112.000000
16276, 56.000000, 240.000000, 112.000000
16277, 60.000000, 240.000000, 112.000000
16278, 64.000000, 240.000000, 112.000000
16279, 68.000000, 240.000000, 112.000000
16280, 72.000000, 240.000000, 112.000000
16281, 36.000000, 244.000000, 112.000000
16282, 40.000000, 244.000000, 112.000000
16283, 44.000000, 244.000000, 112.000000
16284, 48.000000, 244.000000, 112.000000
16285, 52.000000, 244.000000, 112.000000
16286, 56.000000, 244.000000, 112.000000
16287, 60.000000, 244.000000, 112.000000
16288, 64.000000, 244.000000, 112.000000
16289, 68.000000, 244.000000, 112.000000
16290, 72.000000, 244.000000, 112.000000
16291, 36.000000, 248.000000, 112.000000
16292, 40.000000, 248.000000, 112.000000
16293, 44.000000, 248.000000, 112.000000
16294, 48.000000, 248.000000, 112.000000
16295, 52.000000, 248.000000, 112.000000
16296, 56.000000, 248.000000, 112.000000
16297, 60.000000, 248.000000, 112.000000
16298, 64.000000, 248.000000, 112.000000
16299, 68.000000, 248.000000, 112.000000
16300, 72.000000, 248.000000, 112.000000
16301, 36.000000, 252.000000, 112.000000
16302, 40.000000, 252.000000, 112.000000
16303, 44.000000, 252.000000, 112.000000
16304, 48.000000, 252.000000, 112.000000
16305, 52.000000, 252.000000, 112.000000
16306, 56.000000, 252.000000, 112.000000
16307, 60.000000, 252.000000, 112.000000
16308, 64.000000, 252.000000, 112.000000
16309, 68.000000, 252.000000, 112.000000
16310, 72.000000, 252.000000, 112.000000
16311, 36.000000, 256.000000, 112.000000
16312, 40.000000, 256.000000, 112.000000
16313, 44.000000, 256.000000, 112.000000
16314, 48.000000, 256.000000, 112.000000
16315, 52.000000, 256.000000, 112.000000
16316, 56.000000, 256.000000, 112.000000
16317, 60.000000, 256.000000, 112.000000
16318, 64.000000, 256.000000, 112.000000
16319, 68.000000, 256.000000, 112.000000
16320, 72.000000, 256.000000, 112.000000
16321, 36.000000, 260.000000, 112.000000
16322, 40.000000, 260.000000, 112.000000
16323, 44.000000, 260.000000, 112.000000
16324, 48.000000, 260.000000, 112.000000
16325, 52.000000, 260.000000, 112.000000
16326, 56.000000, 260.000000, 112.000000
16327, 60.000000, 260.000000, 112.000000
16328, 64.000000, 260.000000, 112.000000
16329, 68.000000, 260.000000, 112.000000
16330, 72.000000, 260.000000, 112.000000
16331, 36.000000, 264.000000, 112.000000
16332, 40.000000, 264.000000, 112.000000
16333, 44.000000, 264.000000, 112.000000
16334, 48.000000, 264.000000, 112.000000
16335, 52.000000, 264.000000, 112.000000
16336, 56.000000, 264.000000, 112.000000
16337, 60.000000, 264.000000, 112.000000
16338, 64.000000, 264.000000, 112.000000
16339, 68.000000, 264.000000, 112.000000
16340, 72.000000, 264.000000, 112.000000
16341, 36.000000, 268.000000, 112.000000
16342, 40.000000, 268.000000, 112.000000
16343, 44.000000, 268.000000, 112.000000
16344, 48.000000, 268.000000, 112.000000
16345, 52.000000, 268.000000, 112.000000
16346, 56.000000, 268.000000, 112.000000
16347, 60.000000, 268.000000, 112.000000
16348, 64.000000, 268.000000, 112.000000
16349, 68.000000, 268.000000, 112.000000
16350, 72.000000, 268.000000, 112.000000
16351, 36.000000, 272.000000, 112.000000
16352, 40.000000, 272.000000, 112.000000
16353, 44.000000, 272.000000, 112.000000
16354, 48.000000, 272.000000, 112.000000
16355, 52.000000, 272.000000, 112.000000
16356, 56.000000, 272.000000, 112.000000
16357, 60.000000, 272.000000, 112.000000
16358, 64.000000, 272.000000, 112.000000
16359, 68.000000, 272.000000, 112.000000
16360, 72.000000, 272.000000, 112.000000
16361, 36.000000, 276.000000, 112.000000
16362, 40.000000, 276.000000, 112.000000
16363, 44.000000, 276.000000, 112.000000
16364, 48.000000, 276.000000, 112.000000
16365, 52.000000, 276.000000, 112.000000
16366, 56.000000, 276.000000, 112.000000
16367, 60.000000, 276.000000, 112.000000
16368, 64.000000, 276.000000, 112.000000
16369, 68.000000, 276.000000, 112.000000
16370, 72.000000, 276.000000, 112.000000
16371, 36.000000, 280.000000, 112.000000
16372, 40.000000, 280.000000, 112.000000
16373, 44.000000, 280.000000, 112.000000
16374, 48.000000, 280.000000, 112.000000
16375, 52.000000, 280.000000, 112.000000
16376, 56.000000, 280.000000, 112.000000
16377, 60.000000, 280.000000, 112.000000
16378, 64.000000, 280.000000, 112.000000
16379, 68.000000, 280.000000, 112.000000
16380, 72.000000, 280.000000, 112.000000
16381, 36.000000, 284.000000, 112.000000
16382, 40.000000, 284.000000, 112.000000
16383, 44.000000, 284.000000, 112.000000
16384, 48.000000, 284.000000, 112.000000
16385, 52.000000, 284.000000, 112.000000
16386, 56.000000, 284.000000, 112.000000
16387, 60.000000, 284.000000, 112.000000
16388, 64.000000, 284.000000, 112.000000
16389, 68.000000, 284.000000, 112.000000
16390, 72.000000, 284.000000, 112.000000
16391, 36.000000, 288.000000, 112.000000
16392, 40.000000, 288.000000, 112.000000
16393, 44.000000, 288.000000, 112.000000
16394, 48.000000, 288.000000, 112.000000
16395, 52.000000, 288.000000, 112.000000
16396, 56.000000, 288.000000, 112.000000
16397, 60.000000, 288.000000, 112.000000
16398, 64.000000, 288.000000, 112.000000
16399, 68.000000, 288.000000, 112.000000
16400, 72.000000, 288.000000, 112.000000
16401, 36.000000, 292.000000, 112.000000
16402, 40.000000, 292.000000, 112.000000
16403, 44.000000, 292.000000, 112.000000
16404, 48.000000, 292.000000, 112.000000
16405, 52.000000, 292.000000, 112.000000
16406, 56.000000, 292.000000, 112.000000
16407, 60.000000, 292.000000, 112.000000
16408, 64.000000, 292.000000, 112.000000
16409, 68.000000, 292.000000, 112.000000
16410, 72.000000, 292.000000, 112.000000
16411, 36.000000, 296.000000, 112.000000
16412, 40.000000, 296.000000, 112.000000
16413, 44.000000, 296.000000, 112.000000
16414, 48.000000, 296.000000, 112.000000
16415, 52.000000, 296.000000, 112.000000
16416, 56.000000, 296.000000, 112.000000
16417, 60.000000, 296.000000, 112.000000
16418, 64.000000, 296.000000, 112.000000
16419, 68.000000, 296.000000, 112.000000
16420, 72.000000, 296.000000, 112.000000
16421, 36.000000, 300.000000, 112.000000
16422, 40.000000, 300.000000, 112.000000
16423, 44.000000, 300.000000, 112.000000
16424, 48.000000, 300.000000, 112.000000
16425, 52.000000, 300.000000, 112.000000
16426, 56.000000, 300.000000, 112.000000
16427, 60.000000, 300.000000, 112.000000
16428, 64.000000, 300.000000, 112.000000
16429, 68.000000, 300.000000, 112.000000
16430, 72.000000, 300.000000, 112.000000
16431, 36.000000, 304.000000, 112.000000
16432, 40.000000, 304.000000, 112.000000
16433, 44.000000, 304.000000, 112.000000
16434, 48.000000, 304.000000, 112.000000
16435, 52.000000, 304.000000, 112.000000
16436, 56.000000, 304.000000, 112.000000
16437, 60.000000, 304.000000, 112.000000
16438, 64.000000, 304.000000, 112.000000
16439, 68.000000, 304.000000, 112.000000
16440, 72.000000, 304.000000, 112.000000
16441, 36.000000, 308.000000, 112.000000
16442, 40.000000, 308.000000, 112.000000
16443, 44.000000, 308.000000, 112.000000
16444, 48.000000, 308.000000, 112.000000
16445, 52.000000, 308.000000, 112.000000
16446, 56.000000, 308.000000, 112.000000
16447, 60.000000, 308.000000, 112.000000
16448, 64.000000, 308.000000, 112.000000
16449, 68.000000, 308.000000, 112.000000
16450, 72.000000, 308.000000, 112.000000
16451, 36.000000, 312.000000, 112.000000
16452, 40.000000, 312.000000, 112.000000
16453, 44.000000, 312.000000, 112.000000
16454, 48.000000, 312.000000, 112.000000
16455, 52.000000, 312.000000, 112.000000
16456, 56.000000, 312.000000, 112.000000
16457, 60.000000, 312.000000, 112.000000
16458, 64.000000, 312.000000, 112.000000
16459, 68.000000, 312.000000, 112.000000
16460, 72.000000, 312.000000, 112.000000
16461, 36.000000, 316.000000, 112.000000
16462, 40.000000, 316.000000, 112.000000
16463, 44.000000, 316.000000, 112.000000
16464, 48.000000, 316.000000, 112.000000
16465, 52.000000, 316.000000, 112.000000
16466, 56.000000, 316.000000, 112.000000
16467, 60.000000, 316.000000, 112.000000
16468, 64.000000, 316.000000, 112.000000
16469, 68.000000, 316.000000, 112.000000
16470, 72.000000, 316.000000, 112.000000
16471, 36.000000, 320.000000, 112.000000
16472, 40.000000, 320.000000, 112.000000
16473, 44.000000, 320.000000, 112.000000
16474, 48.000000, 320.000000, 112.000000
16475, 52.000000, 320.000000, 112.000000
16476, 56.000000, 320.000000, 112.000000
16477, 60.000000, 320.000000, 112.000000
16478, 64.000000, 320.000000, 112.000000
16479, 68.000000, 320.000000, 112.000000
16480, 72.000000, 320.000000, 112.000000
16481, 36.000000, 324.000000, 112.000000
16482, 40.000000, 324.000000, 112.000000
16483, 44.000000, 324.000000, 112.000000
16484, 48.000000, 324.000000, 112.000000
16485, 52.000000, 324.000000, 112.000000
16486, 56.000000, 324.000000, 112.000000
16487, 60.000000, 324.000000, 112.000000
16488, 64.000000, 324.000000, 112.000000
16489, 68.000000, 324.000000, 112.000000
16490, 72.000000, 324.000000, 112.000000
16491, 36.000000, 328.000000, 112.000000
16492, 40.000000, 328.000000, 112.000000
16493, 44.000000, 328.000000, 112.000000
16494, 48.000000, 328.000000, 112.000000
16495, 52.000000, 328.000000, 112.000000
16496, 56.000000, 328.000000, 112.000000
16497, 60.000000, 328.000000, 112.000000
16498, 64.000000, 328.000000, 112.000000
16499, 68.000000, 328.000000, 112.000000
16500, 72.000000, 328.000000, 112.000000
16501, 36.000000, 332.000000, 112.000000
16502, 40.000000, 332.000000, 112.000000
16503, 44.000000, 332.000000, 112.000000
16504, 48.000000, 332.000000, 112.000000
16505, 52.000000, 332.000000, 112.000000
16506, 56.000000, 332.000000, 112.000000
16507, 60.000000, 332.000000, 112.000000
16508, 64.000000, 332.000000, 112.000000
16509, 68.000000, 332.000000, 112.000000
16510, 72.000000, 332.000000, 112.000000
16511, 36.000000, 336.000000, 112.000000
16512, 40.000000, 336.000000, 112.000000
16513, 44.000000, 336.000000, 112.000000
16514, 48.000000, 336.000000, 112.000000
16515, 52.000000, 336.000000, 112.000000
16516, 56.000000, 336.000000, 112.000000
16517, 60.000000, 336.000000, 112.000000
16518, 64.000000, 336.000000, 112.000000
16519, 68.000000, 336.000000, 112.000000
16520, 72.000000, 336.000000, 112.000000
16521, 36.000000, 340.000000, 112.000000
16522, 40.000000, 340.000000, 112.000000
16523, 44.000000, 340.000000, 112.000000
16524, 48.000000, 340.000000, 112.000000
16525, 52.000000, 340.000000, 112.000000
16526, 56.000000, 340.000000, 112.000000
16527, 60.000000, 340.000000, 112.000000
16528, 64.000000, 340.000000, 112.000000
16529, 68.000000, 340.000000, 112.000000
16530, 72.000000, 340.000000, 112.000000
16531, 36.000000, 344.000000, 112.000000
16532, 40.000000, 344.000000, 112.000000
16533, 44.000000, 344.000000, 112.000000
16534, 48.000000, 344.000000, 112.000000
16535, 52.000000, 344.000000, 112.000000
16536, 56.000000, 344.000000, 112.000000
16537, 60.000000, 344.000000, 112.000000
16538, 64.000000, 344.000000, 112.000000
16539, 68.000000, 344.000000, 112.000000
16540, 72.000000, 344.000000, 112.000000
16541, 36.000000, 348.000000, 112.000000
16542, 40.000000, 348.000000, 112.000000
16543, 44.000000, 348.000000, 112.000000
16544, 48.000000, 348.000000, 112.000000
16545, 52.000000, 348.000000, 112.000000
16546, 56.000000, 348.000000, 112.000000
16547, 60.000000, 348.000000, 112.000000
16548, 64.000000, 348.000000, 112.000000
16549, 68.000000, 348.000000, 112.000000
16550, 72.000000, 348.000000, 112.000000
16551, 36.000000, 352.000000, 112.000000
16552, 40.000000, 352.000000, 112.000000
16553, 44.000000, 352.000000, 112.000000
16554, 48.000000, 352.000000, 112.000000
16555, 52.000000, 352.000000, 112.000000
16556, 56.000000, 352.000000, 112.000000
16557, 60.000000, 352.000000, 112.000000
16558, 64.000000, 352.000000, 112.000000
16559, 68.000000, 352.000000, 112.000000
16560, 72.000000, 352.000000, 112.000000
16561, 36.000000, 356.000000, 112.000000
16562, 40.000000, 356.000000, 112.000000
16563, 44.000000, 356.000000, 112.000000
16564, 48.000000, 356.000000, 112.000000
16565, 52.000000, 356.000000, 112.000000
16566, 56.000000, 356.000000, 112.000000
16567, 60.000000, 356.000000, 112.000000
16568, 64.000000, 356.000000, 112.000000
16569, 68.000000, 356.000000, 112.000000
16570, 72.000000, 356.000000, 112.000000
16571, 36.000000, 360.000000, 112.000000
16572, 40.000000, 360.000000, 112.000000
16573, 44.000000, 360.000000, 112.000000
16574, 48.000000, 360.000000, 112.000000
16575, 52.000000, 360.000000, 112.000000
16576, 56.000000, 360.000000, 112.000000
16577, 60.000000, 360.000000, 112.000000
16578, 64.000000, 360.000000, 112.000000
16579, 68.000000, 360.000000, 112.000000
16580, 72.000000, 360.000000, 112.000000
16581, 36.000000, 364.000000, 112.000000
16582, 40.000000, 364.000000, 112.000000
16583, 44.000000, 364.000000, 112.000000
16584, 48.000000, 364.000000, 112.000000
16585, 52.000000, 364.000000, 112.000000
16586, 56.000000, 364.000000, 112.000000
16587, 60.000000, 364.000000, 112.000000
16588, 64.000000, 364.000000, 112.000000
16589, 68.000000, 364.000000, 112.000000
16590, 72.000000, 364.000000, 112.000000
16591, 36.000000, 368.000000, 112.000000
16592, 40.000000, 368.000000, 112.000000
16593, 44.000000, 368.000000, 112.000000
16594, 48.000000, 368.000000, 112.000000
16595, 52.000000, 368.000000, 112.000000
16596, 56.000000, 368.000000, 112.000000
16597, 60.000000, 368.000000, 112.000000
16598, 64.000000, 368.000000, 112.000000
16599, 68.000000, 368.000000, 112.000000
16600, 72.000000, 368.000000, 112.000000
16601, 36.000000, 372.000000, 112.000000
16602, 40.000000, 372.000000, 112.000000
16603, 44.000000, 372.000000, 112.000000
16604, 48.000000, 372.000000, 112.000000
16605, 52.000000, 372.000000, 112.000000
16606, 56.000000, 372.000000, 112.000000
16607, 60.000000, 372.000000, 112.000000
16608, 64.000000, 372.000000, 112.000000
16609, 68.000000, 372.000000, 112.000000
16610, 72.000000, 372.000000, 112.000000
16611, 36.000000, 376.000000, 112.000000
16612, 40.000000, 376.000000, 112.000000
16613, 44.000000, 376.000000, 112.000000
16614, 48.000000, 376.000000, 112.000000
16615, 52.000000, 376.000000, 112.000000
16616, 56.000000, 376.000000, 112.000000
16617, 60.000000, 376.000000, 112.000000
16618, 64.000000, 376.000000, 112.000000
16619, 68.000000, 376.000000, 112.000000
16620, 72.000000, 376.000000, 112.000000
16621, 36.000000, 380.000000, 112.000000
16622, 40.000000, 380.000000, 112.000000
16623, 44.000000, 380.000000, 112.000000
16624, 48.000000, 380.000000, 112.000000
16625, 52.000000, 380.000000, 112.000000
16626, 56.000000, 380.000000, 112.000000
16627, 60.000000, 380.000000, 112.000000
16628, 64.000000, 380.000000, 112.000000
16629, 68.000000, 380.000000, 112.000000
16630, 72.000000, 380.000000, 112.000000
16631, 36.000000, 384.000000, 112.000000
16632, 40.000000, 384.000000, 112.000000
16633, 44.000000, 384.000000, 112.000000
16634, 48.000000, 384.000000, 112.000000
16635, 52.000000, 384.000000, 112.000000
16636, 56.000000, 384.000000, 112.000000
16637, 60.000000, 384.000000, 112.000000
16638, 64.000000, 384.000000, 112.000000
16639, 68.000000, 384.000000, 112.000000
16640, 72.000000, 384.000000, 112.000000
16641, 36.000000, 388.000000, 112.000000
16642, 40.000000, 388.000000, 112.000000
16643, 44.000000, 388.000000, 112.000000
16644, 48.000000, 388.000000, 112.000000
16645, 52.000000, 388.000000, 112.000000
16646, 56.000000, 388.000000, 112.000000
16647, 60.000000, 388.000000, 112.000000
16648, 64.000000, 388.000000, 112.000000
16649, 68.000000, 388.000000, 112.000000
16650, 72.000000, 388.000000, 112.000000
16651, 36.000000, 392.000000, 112.000000
16652, 40.000000, 392.000000, 112.000000
16653, 44.000000, 392.000000, 112.000000
16654, 48.000000, 392.000000, 112.000000
16655, 52.000000, 392.000000, 112.000000
16656, 56.000000, 392.000000, 112.000000
16657, 60.000000, 392.000000, 112.000000
16658, 64.000000, 392.000000, 112.000000
16659, 68.000000, 392.000000, 112.000000
16660, 72.000000, 392.000000, 112.000000
16661, 36.000000, 396.000000, 112.000000
16662, 40.000000, 396.000000, 112.000000
16663, 44.000000, 396.000000, 112.000000
16664, 48.000000, 396.000000, 112.000000
16665, 52.000000, 396.000000, 112.000000
16666, 56.000000, 396.000000, 112.000000
16667, 60.000000, 396.000000, 112.000000
16668, 64.000000, 396.000000, 112.000000
16669, 68.000000, 396.000000, 112.000000
16670, 72.000000, 396.000000, 112.000000
16671, 36.000000, 400.000000, 112.000000
16672, 40.000000, 400.000000, 112.000000
16673, 44.000000, 400.000000, 112.000000
16674, 48.000000, 400.000000, 112.000000
16675, 52.000000, 400.000000, 112.000000
16676, 56.000000, 400.000000, 112.000000
16677, 60.000000, 400.000000, 112.000000
16678, 64.000000, 400.000000, 112.000000
16679, 68.000000, 400.000000, 112.000000
16680, 72.000000, 400.000000, 112.000000
16681, 36.000000, 404.000000, 112.000000
16682, 40.000000, 404.000000, 112.000000
16683, 44.000000, 404.000000, 112.000000
16684, 48.000000, 404.000000, 112.000000
16685, 52.000000, 404.000000, 112.000000
16686, 56.000000, 404.000000, 112.000000
16687, 60.000000, 404.000000, 112.000000
16688, 64.000000, 404.000000, 112.000000
16689, 68.000000, 404.000000, 112.000000
16690, 72.000000, 404.000000, 112.000000
16691, 36.000000, 408.000000, 112.000000
16692, 40.000000, 408.000000, 112.000000
16693, 44.000000, 408.000000, 112.000000
16694, 48.000000, 408.000000, 112.000000
16695, 52.000000, 408.000000, 112.000000
16696, 56.000000, 408.000000, 112.000000
16697, 60.000000, 408.000000, 112.000000
16698, 64.000000, 408.000000, 112.000000
16699, 68.000000, 408.000000, 112.000000
16700, 72.000000, 408.000000, 112.000000
16701, 36.000000, 412.000000, 112.000000
16702, 40.000000, 412.000000, 112.000000
16703, 44.000000, 412.000000, 112.000000
16704, 48.000000, 412.000000, 112.000000
16705, 52.000000, 412.000000, 112.000000
16706, 56.000000, 412.000000, 112.000000
16707, 60.000000, 412.000000, 112.000000
16708, 64.000000, 412.000000, 112.000000
16709, 68.000000, 412.000000, 112.000000
16710, 72.000000, 412.000000, 112.000000
16711, 36.000000, 416.000000, 112.000000
16712, 40.000000, 416.000000, 112.000000
16713, 44.000000, 416.000000, 112.000000
16714, 48.000000, 416.000000, 112.000000
16715, 52.000000, 416.000000, 112.000000
16716, 56.000000, 416.000000, 112.000000
16717, 60.000000, 416.000000, 112.000000
16718, 64.000000, 416.000000, 112.000000
16719, 68.000000, 416.000000, 112.000000
16720, 72.000000, 416.000000, 112.000000
16721, 36.000000, 420.000000, 112.000000
16722, 40.000000, 420.000000, 112.000000
16723, 44.000000, 420.000000, 112.000000
16724, 48.000000, 420.000000, 112.000000
16725, 52.000000, 420.000000, 112.000000
16726, 56.000000, 420.000000, 112.000000
16727, 60.000000, 420.000000, 112.000000
16728, 64.000000, 420.000000, 112.000000
16729, 68.000000, 420.000000, 112.000000
16730, 72.000000, 420.000000, 112.000000
16731, 36.000000, 424.000000, 112.000000
16732, 40.000000, 424.000000, 112.000000
16733, 44.000000, 424.000000, 112.000000
16734, 48.000000, 424.000000, 112.000000
16735, 52.000000, 424.000000, 112.000000
16736, 56.000000, 424.000000, 112.000000
16737, 60.000000, 424.000000, 112.000000
16738, 64.000000, 424.000000, 112.000000
16739, 68.000000, 424.000000, 112.000000
16740, 72.000000, 424.000000, 112.000000
16741, 36.000000, 428.000000, 112.000000
16742, 40.000000, 428.000000, 112.000000
16743, 44.000000, 428.000000, 112.000000
16744, 48.000000, 428.000000, 112.000000
16745, 52.000000, 428.000000, 112.000000
16746, 56.000000, 428.000000, 112.000000
16747, 60.000000, 428.000000, 112.000000
16748, 64.000000, 428.000000, 112.000000
16749, 68.000000, 428.000000, 112.000000
16750, 72.000000, 428.000000, 112.000000
16751, 36.000000, 432.000000, 112.000000
16752, 40.000000, 432.000000, 112.000000
16753, 44.000000, 432.000000, 112.000000
16754, 48.000000, 432.000000, 112.000000
16755, 52.000000, 432.000000, 112.000000
16756, 56.000000, 432.000000, 112.000000
16757, 60.000000, 432.000000, 112.000000
16758, 64.000000, 432.000000, 112.000000
16759, 68.000000, 432.000000, 112.000000
16760, 72.000000, 432.000000, 112.000000
16761, 36.000000, 436.000000, 112.000000
16762, 40.000000, 436.000000, 112.000000
16763, 44.000000, 436.000000, 112.000000
16764, 48.000000, 436.000000, 112.000000
16765, 52.000000, 436.000000, 112.000000
16766, 56.000000, 436.000000, 112.000000
16767, 60.000000, 436.000000, 112.000000
16768, 64.000000, 436.000000, 112.000000
16769, 68.000000, 436.000000, 112.000000
16770, 72.000000, 436.000000, 112.000000
16771, 36.000000, 440.000000, 112.000000
16772, 40.000000, 440.000000, 112.000000
16773, 44.000000, 440.000000, 112.000000
16774, 48.000000, 440.000000, 112.000000
16775, 52.000000, 440.000000, 112.000000
16776, 56.000000, 440.000000, 112.000000
16777, 60.000000, 440.000000, 112.000000
16778, 64.000000, 440.000000, 112.000000
16779, 68.000000, 440.000000, 112.000000
16780, 72.000000, 440.000000, 112.000000
16781, 36.000000, 444.000000, 112.000000
16782, 40.000000, 444.000000, 112.000000
16783, 44.000000, 444.000000, 112.000000
16784, 48.000000, 444.000000, 112.000000
16785, 52.000000, 444.000000, 112.000000
16786, 56.000000, 444.000000, 112.000000
16787, 60.000000, 444.000000, 112.000000
16788, 64.000000, 444.000000, 112.000000
16789, 68.000000, 444.000000, 112.000000
16790, 72.000000, 444.000000, 112.000000
16791, 36.000000, 448.000000, 112.000000
16792, 40.000000, 448.000000, 112.000000
16793, 44.000000, 448.000000, 112.000000
16794, 48.000000, 448.000000, 112.000000
16795, 52.000000, 448.000000, 112.000000
16796, 56.000000, 448.000000, 112.000000
16797, 60.000000, 448.000000, 112.000000
16798, 64.000000, 448.000000, 112.000000
16799, 68.000000, 448.000000, 112.000000
16800, 72.000000, 448.000000, 112.000000
16801, 36.000000, 452.000000, 112.000000
16802, 40.000000, 452.000000, 112.000000
16803, 44.000000, 452.000000, 112.000000
16804, 48.000000, 452.000000, 112.000000
16805, 52.000000, 452.000000, 112.000000
16806, 56.000000, 452.000000, 112.000000
16807, 60.000000, 452.000000, 112.000000
16808, 64.000000, 452.000000, 112.000000
16809, 68.000000, 452.000000, 112.000000
16810, 72.000000, 452.000000, 112.000000
16811, 36.000000, 456.000000, 112.000000
16812, 40.000000, 456.000000, 112.000000
16813, 44.000000, 456.000000, 112.000000
16814, 48.000000, 456.000000, 112.000000
16815, 52.000000, 456.000000, 112.000000
16816, 56.000000, 456.000000, 112.000000
16817, 60.000000, 456.000000, 112.000000
16818, 64.000000, 456.000000, 112.000000
16819, 68.000000, 456.000000, 112.000000
16820, 72.000000, 456.000000, 112.000000
16821, 36.000000, 228.000000, 116.000000
16822, 40.000000, 228.000000, 116.000000
16823, 44.000000, 228.000000, 116.000000
16824, 48.000000, 228.000000, 116.000000
16825, 52.000000, 228.000000, 116.000000
16826, 56.000000, 228.000000, 116.000000
16827, 60.000000, 228.000000, 116.000000
16828, 64.000000, 228.000000, 116.000000
16829, 68.000000, 228.000000, 116.000000
16830, 72.000000, 228.000000, 116.000000
16831, 36.000000, 232.000000, 116.000000
16832, 40.000000, 232.000000, 116.000000
16833, 44.000000, 232.000000, 116.000000
16834, 48.000000, 232.000000, 116.000000
16835, 52.000000, 232.000000, 116.000000
16836, 56.000000, 232.000000, 116.000000
16837, 60.000000, 232.000000, 116.000000
16838, 64.000000, 232.000000, 116.000000
16839, 68.000000, 232.000000, 116.000000
16840, 72.000000, 232.000000, 116.000000
16841, 36.000000, 236.000000, 116.000000
16842, 40.000000, 236.000000, 116.000000
16843, 44.000000, 236.000000, 116.000000
16844, 48.000000, 236.000000, 116.000000
16845, 52.000000, 236.000000, 116.000000
16846, 56.000000, 236.000000, 116.000000
16847, 60.000000, 236.000000, 116.000000
16848, 64.000000, 236.000000, 116.000000
16849, 68.000000, 236.000000, 116.000000
16850, 72.000000, 236.000000, 116.000000
16851, 36.000000, 240.000000, 116.000000
16852, 40.000000, 240.000000, 116.000000
16853, 44.000000, 240.000000, 116.000000
16854, 48.000000, 240.000000, 116.000000
16855, 52.000000, 240.000000, 116.000000
16856, 56.000000, 240.000000, 116.000000
16857, 60.000000, 240.000000, 116.000000
16858, 64.000000, 240.000000, 116.000000
16859, 68.000000, 240.000000, 116.000000
16860, 72.000000, 240.000000, 116.000000
16861, 36.000000, 244.000000, 116.000000
16862, 40.000000, 244.000000, 116.000000
16863, 44.000000, 244.000000, 116.000000
16864, 48.000000, 244.000000, 116.000000
16865, 52.000000, 244.000000, 116.000000
16866, 56.000000, 244.000000, 116.000000
16867, 60.000000, 244.000000, 116.000000
16868, 64.000000, 244.000000, 116.000000
16869, 68.000000, 244.000000, 116.000000
16870, 72.000000, 244.000000, 116.000000
16871, 36.000000, 248.000000, 116.000000
16872, 40.000000, 248.000000, 116.000000
16873, 44.000000, 248.000000, 116.000000
16874, 48.000000, 248.000000, 116.000000
16875, 52.000000, 248.000000, 116.000000
16876, 56.000000, 248.000000, 116.000000
16877, 60.000000, 248.000000, 116.000000
16878, 64.000000, 248.000000, 116.000000
16879, 68.000000, 248.000000, 116.000000
16880, 72.000000, 248.000000, 116.000000
16881, 36.000000, 252.000000, 116.000000
16882, 40.000000, 252.000000, 116.000000
16883, 44.000000, 252.000000, 116.000000
16884, 48.000000, 252.000000, 116.000000
16885, 52.000000, 252.000000, 116.000000
16886, 56.000000, 252.000000, 116.000000
16887, 60.000000, 252.000000, 116.000000
16888, 64.000000, 252.000000, 116.000000
16889, 68.000000, 252.000000, 116.000000
16890, 72.000000, 252.000000, 116.000000
16891, 36.000000, 256.000000, 116.000000
16892, 40.000000, 256.000000, 116.000000
16893, 44.000000, 256.000000, 116.000000
16894, 48.000000, 256.000000, 116.000000
16895, 52.000000, 256.000000, 116.000000
16896, 56.000000, 256.000000, 116.000000
16897, 60.000000, 256.000000, 116.000000
16898, 64.000000, 256.000000, 116.000000
16899, 68.000000, 256.000000, 116.000000
16900, 72.000000, 256.000000, 116.000000
16901, 36.000000, 260.000000, 116.000000
16902, 40.000000, 260.000000, 116.000000
16903, 44.000000, 260.000000, 116.000000
16904, 48.000000, 260.000000, 116.000000
16905, 52.000000, 260.000000, 116.000000
16906, 56.000000, 260.000000, 116.000000
16907, 60.000000, 260.000000, 116.000000
16908, 64.000000, 260.000000, 116.000000
16909, 68.000000, 260.000000, 116.000000
16910, 72.000000, 260.000000, 116.000000
16911, 36.000000, 264.000000, 116.000000
16912, 40.000000, 264.000000, 116.000000
16913, 44.000000, 264.000000, 116.000000
16914, 48.000000, 264.000000, 116.000000
16915, 52.000000, 264.000000, 116.000000
16916, 56.000000, 264.000000, 116.000000
16917, 60.000000, 264.000000, 116.000000
16918, 64.000000, 264.000000, 116.000000
16919, 68.000000, 264.000000, 116.000000
16920, 72.000000, 264.000000, 116.000000
16921, 36.000000, 268.000000, 116.000000
16922, 40.000000, 268.000000, 116.000000
16923, 44.000000, 268.000000, 116.000000
16924, 48.000000, 268.000000, 116.000000
16925, 52.000000, 268.000000, 116.000000
16926, 56.000000, 268.000000, 116.000000
16927, 60.000000, 268.000000, 116.000000
16928, 64.000000, 268.000000, 116.000000
16929, 68.000000, 268.000000, 116.000000
16930, 72.000000, 268.000000, 116.000000
16931, 36.000000, 272.000000, 116.000000
16932, 40.000000, 272.000000, 116.000000
16933, 44.000000, 272.000000, 116.000000
16934, 48.000000, 272.000000, 116.000000
16935, 52.000000, 272.000000, 116.000000
16936, 56.000000, 272.000000, 116.000000
16937, 60.000000, 272.000000, 116.000000
16938, 64.000000, 272.000000, 116.000000
16939, 68.000000, 272.000000, 116.000000
16940, 72.000000, 272.000000, 116.000000
16941, 36.000000, 276.000000, 116.000000
16942, 40.000000, 276.000000, 116.000000
16943, 44.000000, 276.000000, 116.000000
16944, 48.000000, 276.000000, 116.000000
16945, 52.000000, 276.000000, 116.000000
16946, 56.000000, 276.000000, 116.000000
16947, 60.000000, 276.000000, 116.000000
16948, 64.000000, 276.000000, 116.000000
16949, 68.000000, 276.000000, 116.000000
16950, 72.000000, 276.000000, 116.000000
16951, 36.000000, 280.000000, 116.000000
16952, 40.000000, 280.000000, 116.000000
16953, 44.000000, 280.000000, 116.000000
16954, 48.000000, 280.000000, 116.000000
16955, 52.000000, 280.000000, 116.000000
16956, 56.000000, 280.000000, 116.000000
16957, 60.000000, 280.000000, 116.000000
16958, 64.000000, 280.000000, 116.000000
16959, 68.000000, 280.000000, 116.000000
16960, 72.000000, 280.000000, 116.000000
16961, 36.000000, 284.000000, 116.000000
16962, 40.000000, 284.000000, 116.000000
16963, 44.000000, 284.000000, 116.000000
16964, 48.000000, 284.000000, 116.000000
16965, 52.000000, 284.000000, 116.000000
16966, 56.000000, 284.000000, 116.000000
16967, 60.000000, 284.000000, 116.000000
16968, 64.000000, 284.000000, 116.000000
16969, 68.000000, 284.000000, 116.000000
16970, 72.000000, 284.000000, 116.000000
16971, 36.000000, 288.000000, 116.000000
16972, 40.000000, 288.000000, 116.000000
16973, 44.000000, 288.000000, 116.000000
16974, 48.000000, 288.000000, 116.000000
16975, 52.000000, 288.000000, 116.000000
16976, 56.000000, 288.000000, 116.000000
16977, 60.000000, 288.000000, 116.000000
16978, 64.000000, 288.000000, 116.000000
16979, 68.000000, 288.000000, 116.000000
16980, 72.000000, 288.000000, 116.000000
16981, 36.000000, 292.000000, 116.000000
16982, 40.000000, 292.000000, 116.000000
16983, 44.000000, 292.000000, 116.000000
16984, 48.000000, 292.000000, 116.000000
16985, 52.000000, 292.000000, 116.000000
16986, 56.000000, 292.000000, 116.000000
16987, 60.000000, 292.000000, 116.000000
16988, 64.000000, 292.000000, 116.000000
16989, 68.000000, 292.000000, 116.000000
16990, 72.000000, 292.000000, 116.000000
16991, 36.000000, 296.000000, 116.000000
16992, 40.000000, 296.000000, 116.000000
16993, 44.000000, 296.000000, 116.000000
16994, 48.000000, 296.000000, 116.000000
16995, 52.000000, 296.000000, 116.000000
16996, 56.000000, 296.000000, 116.000000
16997, 60.000000, 296.000000, 116.000000
16998, 64.000000, 296.000000, 116.000000
16999, 68.000000, 296.000000, 116.000000
17000, 72.000000, 296.000000, 116.000000
17001, 36.000000, 300.000000, 116.000000
17002, 40.000000, 300.000000, 116.000000
17003, 44.000000, 300.000000, 116.000000
17004, 48.000000, 300.000000, 116.000000
17005, 52.000000, 300.000000, 116.000000
17006, 56.000000, 300.000000, 116.000000
17007, 60.000000, 300.000000, 116.000000
17008, 64.000000, 300.000000, 116.000000
17009, 68.000000, 300.000000, 116.000000
17010, 72.000000, 300.000000, 116.000000
17011, 36.000000, 304.000000, 116.000000
17012, 40.000000, 304.000000, 116.000000
17013, 44.000000, 304.000000, 116.000000
17014, 48.000000, 304.000000, 116.000000
17015, 52.000000, 304.000000, 116.000000
17016, 56.000000, 304.000000, 116.000000
17017, 60.000000, 304.000000, 116.000000
17018, 64.000000, 304.000000, 116.000000
17019, 68.000000, 304.000000, 116.000000
17020, 72.000000, 304.000000, 116.000000
17021, 36.000000, 308.000000, 116.000000
17022, 40.000000, 308.000000, 116.000000
17023, 44.000000, 308.000000, 116.000000
17024, 48.000000, 308.000000, 116.000000
17025, 52.000000, 308.000000, 116.000000
17026, 56.000000, 308.000000, 116.000000
17027, 60.000000, 308.000000, 116.000000
17028, 64.000000, 308.000000, 116.000000
17029, 68.000000, 308.000000, 116.000000
17030, 72.000000, 308.000000, 116.000000
17031, 36.000000, 312.000000, 116.000000
17032, 40.000000, 312.000000, 116.000000
17033, 44.000000, 312.000000, 116.000000
17034, 48.000000, 312.000000, 116.000000
17035, 52.000000, 312.000000, 116.000000
17036, 56.000000, 312.000000, 116.000000
17037, 60.000000, 312.000000, 116.000000
17038, 64.000000, 312.000000, 116.000000
17039, 68.000000, 312.000000, 116.000000
17040, 72.000000, 312.000000, 116.000000
17041, 36.000000, 316.000000, 116.000000
17042, 40.000000, 316.000000, 116.000000
17043, 44.000000, 316.000000, 116.000000
17044, 48.000000, 316.000000, 116.000000
17045, 52.000000, 316.000000, 116.000000
17046, 56.000000, 316.000000, 116.000000
17047, 60.000000, 316.000000, 116.000000
17048, 64.000000, 316.000000, 116.000000
17049, 68.000000, 316.000000, 116.000000
17050, 72.000000, 316.000000, 116.000000
17051, 36.000000, 320.000000, 116.000000
17052, 40.000000, 320.000000, 116.000000
17053, 44.000000, 320.000000, 116.000000
17054, 48.000000, 320.000000, 116.000000
17055, 52.000000, 320.000000, 116.000000
17056, 56.000000, 320.000000, 116.000000
17057, 60.000000, 320.000000, 116.000000
17058, 64.000000, 320.000000, 116.000000
17059, 68.000000, 320.000000, 116.000000
17060, 72.000000, 320.000000, 116.000000
17061, 36.000000, 324.000000, 116.000000
17062, 40.000000, 324.000000, 116.000000
17063, 44.000000, 324.000000, 116.000000
17064, 48.000000, 324.000000, 116.000000
17065, 52.000000, 324.000000, 116.000000
17066, 56.000000, 324.000000, 116.000000
17067, 60.000000, 324.000000, 116.000000
17068, 64.000000, 324.000000, 116.000000
17069, 68.000000, 324.000000, 116.000000
17070, 72.000000, 324.000000, 116.000000
17071, 36.000000, 328.000000, 116.000000
17072, 40.000000, 328.000000, 116.000000
17073, 44.000000, 328.000000, 116.000000
17074, 48.000000, 328.000000, 116.000000
17075, 52.000000, 328.000000, 116.000000
17076, 56.000000, 328.000000, 116.000000
17077, 60.000000, 328.000000, 116.000000
17078, 64.000000, 328.000000, 116.000000
17079, 68.000000, 328.000000, 116.000000
17080, 72.000000, 328.000000, 116.000000
17081, 36.000000, 332.000000, 116.000000
17082, 40.000000, 332.000000, 116.000000
17083, 44.000000, 332.000000, 116.000000
17084, 48.000000, 332.000000, 116.000000
17085, 52.000000, 332.000000, 116.000000
17086, 56.000000, 332.000000, 116.000000
17087, 60.000000, 332.000000, 116.000000
17088, 64.000000, 332.000000, 116.000000
17089, 68.000000, 332.000000, 116.000000
17090, 72.000000, 332.000000, 116.000000
17091, 36.000000, 336.000000, 116.000000
17092, 40.000000, 336.000000, 116.000000
17093, 44.000000, 336.000000, 116.000000
17094, 48.000000, 336.000000, 116.000000
17095, 52.000000, 336.000000, 116.000000
17096, 56.000000, 336.000000, 116.000000
17097, 60.000000, 336.000000, 116.000000
17098, 64.000000, 336.000000, 116.000000
17099, 68.000000, 336.000000, 116.000000
17100, 72.000000, 336.000000, 116.000000
17101, 36.000000, 340.000000, 116.000000
17102, 40.000000, 340.000000, 116.000000
17103, 44.000000, 340.000000, 116.000000
17104, 48.000000, 340.000000, 116.000000
17105, 52.000000, 340.000000, 116.000000
17106, 56.000000, 340.000000, 116.000000
17107, 60.000000, 340.000000, 116.000000
17108, 64.000000, 340.000000, 116.000000
17109, 68.000000, 340.000000, 116.000000
17110, 72.000000, 340.000000, 116.000000
17111, 36.000000, 344.000000, 116.000000
17112, 40.000000, 344.000000, 116.000000
17113, 44.000000, 344.000000, 116.000000
17114, 48.000000, 344.000000, 116.000000
17115, 52.000000, 344.000000, 116.000000
17116, 56.000000, 344.000000, 116.000000
17117, 60.000000, 344.000000, 116.000000
17118, 64.000000, 344.000000, 116.000000
17119, 68.000000, 344.000000, 116.000000
17120, 72.000000, 344.000000, 116.000000
17121, 36.000000, 348.000000, 116.000000
17122, 40.000000, 348.000000, 116.000000
17123, 44.000000, 348.000000, 116.000000
17124, 48.000000, 348.000000, 116.000000
17125, 52.000000, 348.000000, 116.000000
17126, 56.000000, 348.000000, 116.000000
17127, 60.000000, 348.000000, 116.000000
17128, 64.000000, 348.000000, 116.000000
17129, 68.000000, 348.000000, 116.000000
17130, 72.000000, 348.000000, 116.000000
17131, 36.000000, 352.000000, 116.000000
17132, 40.000000, 352.000000, 116.000000
17133, 44.000000, 352.000000, 116.000000
17134, 48.000000, 352.000000, 116.000000
17135, 52.000000, 352.000000, 116.000000
17136, 56.000000, 352.000000, 116.000000
17137, 60.000000, 352.000000, 116.000000
17138, 64.000000, 352.000000, 116.000000
17139, 68.000000, 352.000000, 116.000000
17140, 72.000000, 352.000000, 116.000000
17141, 36.000000, 356.000000, 116.000000
17142, 40.000000, 356.000000, 116.000000
17143, 44.000000, 356.000000, 116.000000
17144, 48.000000, 356.000000, 116.000000
17145, 52.000000, 356.000000, 116.000000
17146, 56.000000, 356.000000, 116.000000
17147, 60.000000, 356.000000, 116.000000
17148, 64.000000, 356.000000, 116.000000
17149, 68.000000, 356.000000, 116.000000
17150, 72.000000, 356.000000, 116.000000
17151, 36.000000, 360.000000, 116.000000
17152, 40.000000, 360.000000, 116.000000
17153, 44.000000, 360.000000, 116.000000
17154, 48.000000, 360.000000, 116.000000
17155, 52.000000, 360.000000, 116.000000
17156, 56.000000, 360.000000, 116.000000
17157, 60.000000, 360.000000, 116.000000
17158, 64.000000, 360.000000, 116.000000
17159, 68.000000, 360.000000, 116.000000
17160, 72.000000, 360.000000, 116.000000
17161, 36.000000, 364.000000, 116.000000
17162, 40.000000, 364.000000, 116.000000
17163, 44.000000, 364.000000, 116.000000
17164, 48.000000, 364.000000, 116.000000
17165, 52.000000, 364.000000, 116.000000
17166, 56.000000, 364.000000, 116.000000
17167, 60.000000, 364.000000, 116.000000
17168, 64.000000, 364.000000, 116.000000
17169, 68.000000, 364.000000, 116.000000
17170, 72.000000, 364.000000, 116.000000
17171, 36.000000, 368.000000, 116.000000
17172, 40.000000, 368.000000, 116.000000
17173, 44.000000, 368.000000, 116.000000
17174, 48.000000, 368.000000, 116.000000
17175, 52.000000, 368.000000, 116.000000
17176, 56.000000, 368.000000, 116.000000
17177, 60.000000, 368.000000, 116.000000
17178, 64.000000, 368.000000, 116.000000
17179, 68.000000, 368.000000, 116.000000
17180, 72.000000, 368.000000, 116.000000
17181, 36.000000, 372.000000, 116.000000
17182, 40.000000, 372.000000, 116.000000
17183, 44.000000, 372.000000, 116.000000
17184, 48.000000, 372.000000, 116.000000
17185, 52.000000, 372.000000, 116.000000
17186, 56.000000, 372.000000, 116.000000
17187, 60.000000, 372.000000, 116.000000
17188, 64.000000, 372.000000, 116.000000
17189, 68.000000, 372.000000, 116.000000
17190, 72.000000, 372.000000, 116.000000
17191, 36.000000, 376.000000, 116.000000
17192, 40.000000, 376.000000, 116.000000
17193, 44.000000, 376.000000, 116.000000
17194, 48.000000, 376.000000, 116.000000
17195, 52.000000, 376.000000, 116.000000
17196, 56.000000, 376.000000, 116.000000
17197, 60.000000, 376.000000, 116.000000
17198, 64.000000, 376.000000, 116.000000
17199, 68.000000, 376.000000, 116.000000
17200, 72.000000, 376.000000, 116.000000
17201, 36.000000, 380.000000, 116.000000
17202, 40.000000, 380.000000, 116.000000
17203, 44.000000, 380.000000, 116.000000
17204, 48.000000, 380.000000, 116.000000
17205, 52.000000, 380.000000, 116.000000
17206, 56.000000, 380.000000, 116.000000
17207, 60.000000, 380.000000, 116.000000
17208, 64.000000, 380.000000, 116.000000
17209, 68.000000, 380.000000, 116.000000
17210, 72.000000, 380.000000, 116.000000
17211, 36.000000, 384.000000, 116.000000
17212, 40.000000, 384.000000, 116.000000
17213, 44.000000, 384.000000, 116.000000
17214, 48.000000, 384.000000, 116.000000
17215, 52.000000, 384.000000, 116.000000
17216, 56.000000, 384.000000, 116.000000
17217, 60.000000, 384.000000, 116.000000
17218, 64.000000, 384.000000, 116.000000
17219, 68.000000, 384.000000, 116.000000
17220, 72.000000, 384.000000, 116.000000
17221, 36.000000, 388.000000, 116.000000
17222, 40.000000, 388.000000, 116.000000
17223, 44.000000, 388.000000, 116.000000
17224, 48.000000, 388.000000, 116.000000
17225, 52.000000, 388.000000, 116.000000
17226, 56.000000, 388.000000, 116.000000
17227, 60.000000, 388.000000, 116.000000
17228, 64.000000, 388.000000, 116.000000
17229, 68.000000, 388.000000, 116.000000
17230, 72.000000, 388.000000, 116.000000
17231, 36.000000, 392.000000, 116.000000
17232, 40.000000, 392.000000, 116.000000
17233, 44.000000, 392.000000, 116.000000
17234, 48.000000, 392.000000, 116.000000
17235, 52.000000, 392.000000, 116.000000
17236, 56.000000, 392.000000, 116.000000
17237, 60.000000, 392.000000, 116.000000
17238, 64.000000, 392.000000, 116.000000
17239, 68.000000, 392.000000, 116.000000
17240, 72.000000, 392.000000, 116.000000
17241, 36.000000, 396.000000, 116.000000
17242, 40.000000, 396.000000, 116.000000
17243, 44.000000, 396.000000, 116.000000
17244, 48.000000, 396.000000, 116.000000
17245, 52.000000, 396.000000, 116.000000
17246, 56.000000, 396.000000, 116.000000
17247, 60.000000, 396.000000, 116.000000
17248, 64.000000, 396.000000, 116.000000
17249, 68.000000, 396.000000, 116.000000
17250, 72.000000, 396.000000, 116.000000
17251, 36.000000, 400.000000, 116.000000
17252, 40.000000, 400.000000, 116.000000
17253, 44.000000, 400.000000, 116.000000
17254, 48.000000, 400.000000, 116.000000
17255, 52.000000, 400.000000, 116.000000
17256, 56.000000, 400.000000, 116.000000
17257, 60.000000, 400.000000, 116.000000
17258, 64.000000, 400.000000, 116.000000
17259, 68.000000, 400.000000, 116.000000
17260, 72.000000, 400.000000, 116.000000
17261, 36.000000, 404.000000, 116.000000
17262, 40.000000, 404.000000, 116.000000
17263, 44.000000, 404.000000, 116.000000
17264, 48.000000, 404.000000, 116.000000
17265, 52.000000, 404.000000, 116.000000
17266, 56.000000, 404.000000, 116.000000
17267, 60.000000, 404.000000, 116.000000
17268, 64.000000, 404.000000, 116.000000
17269, 68.000000, 404.000000, 116.000000
17270, 72.000000, 404.000000, 116.000000
17271, 36.000000, 408.000000, 116.000000
17272, 40.000000, 408.000000, 116.000000
17273, 44.000000, 408.000000, 116.000000
17274, 48.000000, 408.000000, 116.000000
17275, 52.000000, 408.000000, 116.000000
17276, 56.000000, 408.000000, 116.000000
17277, 60.000000, 408.000000, 116.000000
17278, 64.000000, 408.000000, 116.000000
17279, 68.000000, 408.000000, 116.000000
17280, 72.000000, 408.000000, 116.000000
17281, 36.000000, 412.000000, 116.000000
17282, 40.000000, 412.000000, 116.000000
17283, 44.000000, 412.000000, 116.000000
17284, 48.000000, 412.000000, 116.000000
17285, 52.000000, 412.000000, 116.000000
17286, 56.000000, 412.000000, 116.000000
17287, 60.000000, 412.000000, 116.000000
17288, 64.000000, 412.000000, 116.000000
17289, 68.000000, 412.000000, 116.000000
17290, 72.000000, 412.000000, 116.000000
17291, 36.000000, 416.000000, 116.000000
17292, 40.000000, 416.000000, 116.000000
17293, 44.000000, 416.000000, 116.000000
17294, 48.000000, 416.000000, 116.000000
17295, 52.000000, 416.000000, 116.000000
17296, 56.000000, 416.000000, 116.000000
17297, 60.000000, 416.000000, 116.000000
17298, 64.000000, 416.000000, 116.000000
17299, 68.000000, 416.000000, 116.000000
17300, 72.000000, 416.000000, 116.000000
17301, 36.000000, 420.000000, 116.000000
17302, 40.000000, 420.000000, 116.000000
17303, 44.000000, 420.000000, 116.000000
17304, 48.000000, 420.000000, 116.000000
17305, 52.000000, 420.000000, 116.000000
17306, 56.000000, 420.000000, 116.000000
17307, 60.000000, 420.000000, 116.000000
17308, 64.000000, 420.000000, 116.000000
17309, 68.000000, 420.000000, 116.000000
17310, 72.000000, 420.000000, 116.000000
17311, 36.000000, 424.000000, 116.000000
17312, 40.000000, 424.000000, 116.000000
17313, 44.000000, 424.000000, 116.000000
17314, 48.000000, 424.000000, 116.000000
17315, 52.000000, 424.000000, 116.000000
17316, 56.000000, 424.000000, 116.000000
17317, 60.000000, 424.000000, 116.000000
17318, 64.000000, 424.000000, 116.000000
17319, 68.000000, 424.000000, 116.000000
17320, 72.000000, 424.000000, 116.000000
17321, 36.000000, 428.000000, 116.000000
17322, 40.000000, 428.000000, 116.000000
17323, 44.000000, 428.000000, 116.000000
17324, 48.000000, 428.000000, 116.000000
17325, 52.000000, 428.000000, 116.000000
17326, 56.000000, 428.000000, 116.000000
17327, 60.000000, 428.000000, 116.000000
17328, 64.000000, 428.000000, 116.000000
17329, 68.000000, 428.000000, 116.000000
17330, 72.000000, 428.000000, 116.000000
17331, 36.000000, 432.000000, 116.000000
17332, 40.000000, 432.000000, 116.000000
17333, 44.000000, 432.000000, 116.000000
17334, 48.000000, 432.000000, 116.000000
17335, 52.000000, 432.000000, 116.000000
17336, 56.000000, 432.000000, 116.000000
17337, 60.000000, 432.000000, 116.000000
17338, 64.000000, 432.000000, 116.000000
17339, 68.000000, 432.000000, 116.000000
17340, 72.000000, 432.000000, 116.000000
17341, 36.000000, 436.000000, 116.000000
17342, 40.000000, 436.000000, 116.000000
17343, 44.000000, 436.000000, 116.000000
17344, 48.000000, 436.000000, 116.000000
17345, 52.000000, 436.000000, 116.000000
17346, 56.000000, 436.000000, 116.000000
17347, 60.000000, 436.000000, 116.000000
17348, 64.000000, 436.000000, 116.000000
17349, 68.000000, 436.000000, 116.000000
17350, 72.000000, 436.000000, 116.000000
17351, 36.000000, 440.000000, 116.000000
17352, 40.000000, 440.000000, 116.000000
17353, 44.000000, 440.000000, 116.000000
17354, 48.000000, 440.000000, 116.000000
17355, 52.000000, 440.000000, 116.000000
17356, 56.000000, 440.000000, 116.000000
17357, 60.000000, 440.000000, 116.000000
17358, 64.000000, 440.000000, 116.000000
17359, 68.000000, 440.000000, 116.000000
17360, 72.000000, 440.000000, 116.000000
17361, 36.000000, 444.000000, 116.000000
17362, 40.000000, 444.000000, 116.000000
17363, 44.000000, 444.000000, 116.000000
17364, 48.000000, 444.000000, 116.000000
17365, 52.000000, 444.000000, 116.000000
17366, 56.000000, 444.000000, 116.000000
17367, 60.000000, 444.000000, 116.000000
17368, 64.000000, 444.000000, 116.000000
17369, 68.000000, 444.000000, 116.000000
17370, 72.000000, 444.000000, 116.000000
17371, 36.000000, 448.000000, 116.000000
17372, 40.000000, 448.000000, 116.000000
17373, 44.000000, 448.000000, 116.000000
17374, 48.000000, 448.000000, 116.000000
17375, 52.000000, 448.000000, 116.000000
17376, 56.000000, 448.000000, 116.000000
17377, 60.000000, 448.000000, 116.000000
17378, 64.000000, 448.000000, 116.000000
17379, 68.000000, 448.000000, 116.000000
17380, 72.000000, 448.000000, 116.000000
17381, 36.000000, 452.000000, 116.000000
17382, 40.000000, 452.000000, 116.000000
17383, 44.000000, 452.000000, 116.000000
17384, 48.000000, 452.000000, 116.000000
17385, 52.000000, 452.000000, 116.000000
17386, 56.000000, 452.000000, 116.000000
17387, 60.000000, 452.000000, 116.000000
17388, 64.000000, 452.000000, 116.000000
17389, 68.000000, 452.000000, 116.000000
17390, 72.000000, 452.000000, 116.000000
17391, 36.000000, 456.000000, 116.000000
17392, 40.000000, 456.000000, 116.000000
17393, 44.000000, 456.000000, 116.000000
17394, 48.000000, 456.000000, 116.000000
17395, 52.000000, 456.000000, 116.000000
17396, 56.000000, 456.000000, 116.000000
17397, 60.000000, 456.000000, 116.000000
17398, 64.000000, 456.000000, 116.000000
17399, 68.000000, 456.000000, 116.000000
17400, 72.000000, 456.000000, 116.000000
17401, 36.000000, 228.000000, 120.000000
17402, 40.000000, 228.000000, 120.000000
17403, 44.000000, 228.000000, 120.000000
17404, 48.000000, 228.000000, 120.000000
17405, 52.000000, 228.000000, 120.000000
17406, 56.000000, 228.000000, 120.000000
17407, 60.000000, 228.000000, 120.000000
17408, 64.000000, 228.000000, 120.000000
17409, 68.000000, 228.000000, 120.000000
17410, 72.000000, 228.000000, 120.000000
17411, 36.000000, 232.000000, 120.000000
17412, 40.000000, 232.000000, 120.000000
17413, 44.000000, 232.000000, 120.000000
17414, 48.000000, 232.000000, 120.000000
17415, 52.000000, 232.000000, 120.000000
17416, 56.000000, 232.000000, 120.000000
17417, 60.000000, 232.000000, 120.000000
17418, 64.000000, 232.000000, 120.000000
17419, 68.000000, 232.000000, 120.000000
17420, 72.000000, 232.000000, 120.000000
17421, 36.000000, 236.000000, 120.000000
17422, 40.000000, 236.000000, 120.000000
17423, 44.000000, 236.000000, 120.000000
17424, 48.000000, 236.000000, 120.000000
17425, 52.000000, 236.000000, 120.000000
17426, 56.000000, 236.000000, 120.000000
17427, 60.000000, 236.000000, 120.000000
17428, 64.000000, 236.000000, 120.000000
17429, 68.000000, 236.000000, 120.000000
17430, 72.000000, 236.000000, 120.000000
17431, 36.000000, 240.000000, 120.000000
17432, 40.000000, 240.000000, 120.000000
17433, 44.000000, 240.000000, 120.000000
17434, 48.000000, 240.000000, 120.000000
17435, 52.000000, 240.000000, 120.000000
17436, 56.000000, 240.000000, 120.000000
17437, 60.000000, 240.000000, 120.000000
17438, 64.000000, 240.000000, 120.000000
17439, 68.000000, 240.000000, 120.000000
17440, 72.000000, 240.000000, 120.000000
17441, 36.000000, 244.000000, 120.000000
17442, 40.000000, 244.000000, 120.000000
17443, 44.000000, 244.000000, 120.000000
17444, 48.000000, 244.000000, 120.000000
17445, 52.000000, 244.000000, 120.000000
17446, 56.000000, 244.000000, 120.000000
17447, 60.000000, 244.000000, 120.000000
17448, 64.000000, 244.000000, 120.000000
17449, 68.000000, 244.000000, 120.000000
17450, 72.000000, 244.000000, 120.000000
17451, 36.000000, 248.000000, 120.000000
17452, 40.000000, 248.000000, 120.000000
17453, 44.000000, 248.000000, 120.000000
17454, 48.000000, 248.000000, 120.000000
17455, 52.000000, 248.000000, 120.000000
17456, 56.000000, 248.000000, 120.000000
17457, 60.000000, 248.000000, 120.000000
17458, 64.000000, 248.000000, 120.000000
17459, 68.000000, 248.000000, 120.000000
17460, 72.000000, 248.000000, 120.000000
17461, 36.000000, 252.000000, 120.000000
17462, 40.000000, 252.000000, 120.000000
17463, 44.000000, 252.000000, 120.000000
17464, 48.000000, 252.000000, 120.000000
17465, 52.000000, 252.000000, 120.000000
17466, 56.000000, 252.000000, 120.000000
17467, 60.000000, 252.000000, 120.000000
17468, 64.000000, 252.000000, 120.000000
17469, 68.000000, 252.000000, 120.000000
17470, 72.000000, 252.000000, 120.000000
17471, 36.000000, 256.000000, 120.000000
17472, 40.000000, 256.000000, 120.000000
17473, 44.000000, 256.000000, 120.000000
17474, 48.000000, 256.000000, 120.000000
17475, 52.000000, 256.000000, 120.000000
17476, 56.000000, 256.000000, 120.000000
17477, 60.000000, 256.000000, 120.000000
17478, 64.000000, 256.000000, 120.000000
17479, 68.000000, 256.000000, 120.000000
17480, 72.000000, 256.000000, 120.000000
17481, 36.000000, 260.000000, 120.000000
17482, 40.000000, 260.000000, 120.000000
17483, 44.000000, 260.000000, 120.000000
17484, 48.000000, 260.000000, 120.000000
17485, 52.000000, 260.000000, 120.000000
17486, 56.000000, 260.000000, 120.000000
17487, 60.000000, 260.000000, 120.000000
17488, 64.000000, 260.000000, 120.000000
17489, 68.000000, 260.000000, 120.000000
17490, 72.000000, 260.000000, 120.000000
17491, 36.000000, 264.000000, 120.000000
17492, 40.000000, 264.000000, 120.000000
17493, 44.000000, 264.000000, 120.000000
17494, 48.000000, 264.000000, 120.000000
17495, 52.000000, 264.000000, 120.000000
17496, 56.000000, 264.000000, 120.000000
17497, 60.000000, 264.000000, 120.000000
17498, 64.000000, 264.000000, 120.000000
17499, 68.000000, 264.000000, 120.000000
17500, 72.000000, 264.000000, 120.000000
17501, 36.000000, 268.000000, 120.000000
17502, 40.000000, 268.000000, 120.000000
17503, 44.000000, 268.000000, 120.000000
17504, 48.000000, 268.000000, 120.000000
17505, 52.000000, 268.000000, 120.000000
17506, 56.000000, 268.000000, 120.000000
17507, 60.000000, 268.000000, 120.000000
17508, 64.000000, 268.000000, 120.000000
17509, 68.000000, 268.000000, 120.000000
17510, 72.000000, 268.000000, 120.000000
17511, 36.000000, 272.000000, 120.000000
17512, 40.000000, 272.000000, 120.000000
17513, 44.000000, 272.000000, 120.000000
17514, 48.000000, 272.000000, 120.000000
17515, 52.000000, 272.000000, 120.000000
17516, 56.000000, 272.000000, 120.000000
17517, 60.000000, 272.000000, 120.000000
17518, 64.000000, 272.000000, 120.000000
17519, 68.000000, 272.000000, 120.000000
17520, 72.000000, 272.000000, 120.000000
17521, 36.000000, 276.000000, 120.000000
17522, 40.000000, 276.000000, 120.000000
17523, 44.000000, 276.000000, 120.000000
17524, 48.000000, 276.000000, 120.000000
17525, 52.000000, 276.000000, 120.000000
17526, 56.000000, 276.000000, 120.000000
17527, 60.000000, 276.000000, 120.000000
17528, 64.000000, 276.000000, 120.000000
17529, 68.000000, 276.000000, 120.000000
17530, 72.000000, 276.000000, 120.000000
17531, 36.000000, 280.000000, 120.000000
17532, 40.000000, 280.000000, 120.000000
17533, 44.000000, 280.000000, 120.000000
17534, 48.000000, 280.000000, 120.000000
17535, 52.000000, 280.000000, 120.000000
17536, 56.000000, 280.000000, 120.000000
17537, 60.000000, 280.000000, 120.000000
17538, 64.000000, 280.000000, 120.000000
17539, 68.000000, 280.000000, 120.000000
17540, 72.000000, 280.000000, 120.000000
17541, 36.000000, 284.000000, 120.000000
17542, 40.000000, 284.000000, 120.000000
17543, 44.000000, 284.000000, 120.000000
17544, 48.000000, 284.000000, 120.000000
17545, 52.000000, 284.000000, 120.000000
17546, 56.000000, 284.000000, 120.000000
17547, 60.000000, 284.000000, 120.000000
17548, 64.000000, 284.000000, 120.000000
17549, 68.000000, 284.000000, 120.000000
17550, 72.000000, 284.000000, 120.000000
17551, 36.000000, 288.000000, 120.000000
17552, 40.000000, 288.000000, 120.000000
17553, 44.000000, 288.000000, 120.000000
17554, 48.000000, 288.000000, 120.000000
17555, 52.000000, 288.000000, 120.000000
17556, 56.000000, 288.000000, 120.000000
17557, 60.000000, 288.000000, 120.000000
17558, 64.000000, 288.000000, 120.000000
17559, 68.000000, 288.000000, 120.000000
17560, 72.000000, 288.000000, 120.000000
17561, 36.000000, 292.000000, 120.000000
17562, 40.000000, 292.000000, 120.000000
17563, 44.000000, 292.000000, 120.000000
17564, 48.000000, 292.000000, 120.000000
17565, 52.000000, 292.000000, 120.000000
17566, 56.000000, 292.000000, 120.000000
17567, 60.000000, 292.000000, 120.000000
17568, 64.000000, 292.000000, 120.000000
17569, 68.000000, 292.000000, 120.000000
17570, 72.000000, 292.000000, 120.000000
17571, 36.000000, 296.000000, 120.000000
17572, 40.000000, 296.000000, 120.000000
17573, 44.000000, 296.000000, 120.000000
17574, 48.000000, 296.000000, 120.000000
17575, 52.000000, 296.000000, 120.000000
17576, 56.000000, 296.000000, 120.000000
17577, 60.000000, 296.000000, 120.000000
17578, 64.000000, 296.000000, 120.000000
17579, 68.000000, 296.000000, 120.000000
17580, 72.000000, 296.000000, 120.000000
17581, 36.000000, 300.000000, 120.000000
17582, 40.000000, 300.000000, 120.000000
17583, 44.000000, 300.000000, 120.000000
17584, 48.000000, 300.000000, 120.000000
17585, 52.000000, 300.000000, 120.000000
17586, 56.000000, 300.000000, 120.000000
17587, 60.000000, 300.000000, 120.000000
17588, 64.000000, 300.000000, 120.000000
17589, 68.000000, 300.000000, 120.000000
17590, 72.000000, 300.000000, 120.000000
17591, 36.000000, 304.000000, 120.000000
17592, 40.000000, 304.000000, 120.000000
17593, 44.000000, 304.000000, 120.000000
17594, 48.000000, 304.000000, 120.000000
17595, 52.000000, 304.000000, 120.000000
17596, 56.000000, 304.000000, 120.000000
17597, 60.000000, 304.000000, 120.000000
17598, 64.000000, 304.000000, 120.000000
17599, 68.000000, 304.000000, 120.000000
17600, 72.000000, 304.000000, 120.000000
17601, 36.000000, 308.000000, 120.000000
17602, 40.000000, 308.000000, 120.000000
17603, 44.000000, 308.000000, 120.000000
17604, 48.000000, 308.000000, 120.000000
17605, 52.000000, 308.000000, 120.000000
17606, 56.000000, 308.000000, 120.000000
17607, 60.000000, 308.000000, 120.000000
17608, 64.000000, 308.000000, 120.000000
17609, 68.000000, 308.000000, 120.000000
17610, 72.000000, 308.000000, 120.000000
17611, 36.000000, 312.000000, 120.000000
17612, 40.000000, 312.000000, 120.000000
17613, 44.000000, 312.000000, 120.000000
17614, 48.000000, 312.000000, 120.000000
17615, 52.000000, 312.000000, 120.000000
17616, 56.000000, 312.000000, 120.000000
17617, 60.000000, 312.000000, 120.000000
17618, 64.000000, 312.000000, 120.000000
17619, 68.000000, 312.000000, 120.000000
17620, 72.000000, 312.000000, 120.000000
17621, 36.000000, 316.000000, 120.000000
17622, 40.000000, 316.000000, 120.000000
17623, 44.000000, 316.000000, 120.000000
17624, 48.000000, 316.000000, 120.000000
17625, 52.000000, 316.000000, 120.000000
17626, 56.000000, 316.000000, 120.000000
17627, 60.000000, 316.000000, 120.000000
17628, 64.000000, 316.000000, 120.000000
17629, 68.000000, 316.000000, 120.000000
17630, 72.000000, 316.000000, 120.000000
17631, 36.000000, 320.000000, 120.000000
17632, 40.000000, 320.000000, 120.000000
17633, 44.000000, 320.000000, 120.000000
17634, 48.000000, 320.000000, 120.000000
17635, 52.000000, 320.000000, 120.000000
17636, 56.000000, 320.000000, 120.000000
17637, 60.000000, 320.000000, 120.000000
17638, 64.000000, 320.000000, 120.000000
17639, 68.000000, 320.000000, 120.000000
17640, 72.000000, 320.000000, 120.000000
17641, 36.000000, 324.000000, 120.000000
17642, 40.000000, 324.000000, 120.000000
17643, 44.000000, 324.000000, 120.000000
17644, 48.000000, 324.000000, 120.000000
17645, 52.000000, 324.000000, 120.000000
17646, 56.000000, 324.000000, 120.000000
17647, 60.000000, 324.000000, 120.000000
17648, 64.000000, 324.000000, 120.000000
17649, 68.000000, 324.000000, 120.000000
17650, 72.000000, 324.000000, 120.000000
17651, 36.000000, 328.000000, 120.000000
17652, 40.000000, 328.000000, 120.000000
17653, 44.000000, 328.000000, 120.000000
17654, 48.000000, 328.000000, 120.000000
17655, 52.000000, 328.000000, 120.000000
17656, 56.000000, 328.000000, 120.000000
17657, 60.000000, 328.000000, 120.000000
17658, 64.000000, 328.000000, 120.000000
17659, 68.000000, 328.000000, 120.000000
17660, 72.000000, 328.000000, 120.000000
17661, 36.000000, 332.000000, 120.000000
17662, 40.000000, 332.000000, 120.000000
17663, 44.000000, 332.000000, 120.000000
17664, 48.000000, 332.000000, 120.000000
17665, 52.000000, 332.000000, 120.000000
17666, 56.000000, 332.000000, 120.000000
17667, 60.000000, 332.000000, 120.000000
17668, 64.000000, 332.000000, 120.000000
17669, 68.000000, 332.000000, 120.000000
17670, 72.000000, 332.000000, 120.000000
17671, 36.000000, 336.000000, 120.000000
17672, 40.000000, 336.000000, 120.000000
17673, 44.000000, 336.000000, 120.000000
17674, 48.000000, 336.000000, 120.000000
17675, 52.000000, 336.000000, 120.000000
17676, 56.000000, 336.000000, 120.000000
17677, 60.000000, 336.000000, 120.000000
17678, 64.000000, 336.000000, 120.000000
17679, 68.000000, 336.000000, 120.000000
17680, 72.000000, 336.000000, 120.000000
17681, 36.000000, 340.000000, 120.000000
17682, 40.000000, 340.000000, 120.000000
17683, 44.000000, 340.000000, 120.000000
17684, 48.000000, 340.000000, 120.000000
17685, 52.000000, 340.000000, 120.000000
17686, 56.000000, 340.000000, 120.000000
17687, 60.000000, 340.000000, 120.000000
17688, 64.000000, 340.000000, 120.000000
17689, 68.000000, 340.000000, 120.000000
17690, 72.000000, 340.000000, 120.000000
17691, 36.000000, 344.000000, 120.000000
17692, 40.000000, 344.000000, 120.000000
17693, 44.000000, 344.000000, 120.000000
17694, 48.000000, 344.000000, 120.000000
17695, 52.000000, 344.000000, 120.000000
17696, 56.000000, 344.000000, 120.000000
17697, 60.000000, 344.000000, 120.000000
17698, 64.000000, 344.000000, 120.000000
17699, 68.000000, 344.000000, 120.000000
17700, 72.000000, 344.000000, 120.000000
17701, 36.000000, 348.000000, 120.000000
17702, 40.000000, 348.000000, 120.000000
17703, 44.000000, 348.000000, 120.000000
17704, 48.000000, 348.000000, 120.000000
17705, 52.000000, 348.000000, 120.000000
17706, 56.000000, 348.000000, 120.000000
17707, 60.000000, 348.000000, 120.000000
17708, 64.000000, 348.000000, 120.000000
17709, 68.000000, 348.000000, 120.000000
17710, 72.000000, 348.000000, 120.000000
17711, 36.000000, 352.000000, 120.000000
17712, 40.000000, 352.000000, 120.000000
17713, 44.000000, 352.000000, 120.000000
17714, 48.000000, 352.000000, 120.000000
17715, 52.000000, 352.000000, 120.000000
17716, 56.000000, 352.000000, 120.000000
17717, 60.000000, 352.000000, 120.000000
17718, 64.000000, 352.000000, 120.000000
17719, 68.000000, 352.000000, 120.000000
17720, 72.000000, 352.000000, 120.000000
17721, 36.000000, 356.000000, 120.000000
17722, 40.000000, 356.000000, 120.000000
17723, 44.000000, 356.000000, 120.000000
17724, 48.000000, 356.000000, 120.000000
17725, 52.000000, 356.000000, 120.000000
17726, 56.000000, 356.000000, 120.000000
17727, 60.000000, 356.000000, 120.000000
17728, 64.000000, 356.000000, 120.000000
17729, 68.000000, 356.000000, 120.000000
17730, 72.000000, 356.000000, 120.000000
17731, 36.000000, 360.000000, 120.000000
17732, 40.000000, 360.000000, 120.000000
17733, 44.000000, 360.000000, 120.000000
17734, 48.000000, 360.000000, 120.000000
17735, 52.000000, 360.000000, 120.000000
17736, 56.000000, 360.000000, 120.000000
17737, 60.000000, 360.000000, 120.000000
17738, 64.000000, 360.000000, 120.000000
17739, 68.000000, 360.000000, 120.000000
17740, 72.000000, 360.000000, 120.000000
17741, 36.000000, 364.000000, 120.000000
17742, 40.000000, 364.000000, 120.000000
17743, 44.000000, 364.000000, 120.000000
17744, 48.000000, 364.000000, 120.000000
17745, 52.000000, 364.000000, 120.000000
17746, 56.000000, 364.000000, 120.000000
17747, 60.000000, 364.000000, 120.000000
17748, 64.000000, 364.000000, 120.000000
17749, 68.000000, 364.000000, 120.000000
17750, 72.000000, 364.000000, 120.000000
17751, 36.000000, 368.000000, 120.000000
17752, 40.000000, 368.000000, 120.000000
17753, 44.000000, 368.000000, 120.000000
17754, 48.000000, 368.000000, 120.000000
17755, 52.000000, 368.000000, 120.000000
17756, 56.000000, 368.000000, 120.000000
17757, 60.000000, 368.000000, 120.000000
17758, 64.000000, 368.000000, 120.000000
17759, 68.000000, 368.000000, 120.000000
17760, 72.000000, 368.000000, 120.000000
17761, 36.000000, 372.000000, 120.000000
17762, 40.000000, 372.000000, 120.000000
17763, 44.000000, 372.000000, 120.000000
17764, 48.000000, 372.000000, 120.000000
17765, 52.000000, 372.000000, 120.000000
17766, 56.000000, 372.000000, 120.000000
17767, 60.000000, 372.000000, 120.000000
17768, 64.000000, 372.000000, 120.000000
17769, 68.000000, 372.000000, 120.000000
17770, 72.000000, 372.000000, 120.000000
17771, 36.000000, 376.000000, 120.000000
17772, 40.000000, 376.000000, 120.000000
17773, 44.000000, 376.000000, 120.000000
17774, 48.000000, 376.000000, 120.000000
17775, 52.000000, 376.000000, 120.000000
17776, 56.000000, 376.000000, 120.000000
17777, 60.000000, 376.000000, 120.000000
17778, 64.000000, 376.000000, 120.000000
17779, 68.000000, 376.000000, 120.000000
17780, 72.000000, 376.000000, 120.000000
17781, 36.000000, 380.000000, 120.000000
17782, 40.000000, 380.000000, 120.000000
17783, 44.000000, 380.000000, 120.000000
17784, 48.000000, 380.000000, 120.000000
17785, 52.000000, 380.000000, 120.000000
17786, 56.000000, 380.000000, 120.000000
17787, 60.000000, 380.000000, 120.000000
17788, 64.000000, 380.000000, 120.000000
17789, 68.000000, 380.000000, 120.000000
17790, 72.000000, 380.000000, 120.000000
17791, 36.000000, 384.000000, 120.000000
17792, 40.000000, 384.000000, 120.000000
17793, 44.000000, 384.000000, 120.000000
17794, 48.000000, 384.000000, 120.000000
17795, 52.000000, 384.000000, 120.000000
17796, 56.000000, 384.000000, 120.000000
17797, 60.000000, 384.000000, 120.000000
17798, 64.000000, 384.000000, 120.000000
17799, 68.000000, 384.000000, 120.000000
17800, 72.000000, 384.000000, 120.000000
17801, 36.000000, 388.000000, 120.000000
17802, 40.000000, 388.000000, 120.000000
17803, 44.000000, 388.000000, 120.000000
17804, 48.000000, 388.000000, 120.000000
17805, 52.000000, 388.000000, 120.000000
17806, 56.000000, 388.000000, 120.000000
17807, 60.000000, 388.000000, 120.000000
17808, 64.000000, 388.000000, 120.000000
17809, 68.000000, 388.000000, 120.000000
17810, 72.000000, 388.000000, 120.000000
17811, 36.000000, 392.000000, 120.000000
17812, 40.000000, 392.000000, 120.000000
17813, 44.000000, 392.000000, 120.000000
17814, 48.000000, 392.000000, 120.000000
17815, 52.000000, 392.000000, 120.000000
17816, 56.000000, 392.000000, 120.000000
17817, 60.000000, 392.000000, 120.000000
17818, 64.000000, 392.000000, 120.000000
17819, 68.000000, 392.000000, 120.000000
17820, 72.000000, 392.000000, 120.000000
17821, 36.000000, 396.000000, 120.000000
17822, 40.000000, 396.000000, 120.000000
17823, 44.000000, 396.000000, 120.000000
17824, 48.000000, 396.000000, 120.000000
17825, 52.000000, 396.000000, 120.000000
17826, 56.000000, 396.000000, 120.000000
17827, 60.000000, 396.000000, 120.000000
17828, 64.000000, 396.000000, 120.000000
17829, 68.000000, 396.000000, 120.000000
17830, 72.000000, 396.000000, 120.000000
17831, 36.000000, 400.000000, 120.000000
17832, 40.000000, 400.000000, 120.000000
17833, 44.000000, 400.000000, 120.000000
17834, 48.000000, 400.000000, 120.000000
17835, 52.000000, 400.000000, 120.000000
17836, 56.000000, 400.000000, 120.000000
17837, 60.000000, 400.000000, 120.000000
17838, 64.000000, 400.000000, 120.000000
17839, 68.000000, 400.000000, 120.000000
17840, 72.000000, 400.000000, 120.000000
17841, 36.000000, 404.000000, 120.000000
17842, 40.000000, 404.000000, 120.000000
17843, 44.000000, 404.000000, 120.000000
17844, 48.000000, 404.000000, 120.000000
17845, 52.000000, 404.000000, 120.000000
17846, 56.000000, 404.000000, 120.000000
17847, 60.000000, 404.000000, 120.000000
17848, 64.000000, 404.000000, 120.000000
17849, 68.000000, 404.000000, 120.000000
17850, 72.000000, 404.000000, 120.000000
17851, 36.000000, 408.000000, 120.000000
17852, 40.000000, 408.000000, 120.000000
17853, 44.000000, 408.000000, 120.000000
17854, 48.000000, 408.000000, 120.000000
17855, 52.000000, 408.000000, 120.000000
17856, 56.000000, 408.000000, 120.000000
17857, 60.000000, 408.000000, 120.000000
17858, 64.000000, 408.000000, 120.000000
17859, 68.000000, 408.000000, 120.000000
17860, 72.000000, 408.000000, 120.000000
17861, 36.000000, 412.000000, 120.000000
17862, 40.000000, 412.000000, 120.000000
17863, 44.000000, 412.000000, 120.000000
17864, 48.000000, 412.000000, 120.000000
17865, 52.000000, 412.000000, 120.000000
17866, 56.000000, 412.000000, 120.000000
17867, 60.000000, 412.000000, 120.000000
17868, 64.000000, 412.000000, 120.000000
17869, 68.000000, 412.000000, 120.000000
17870, 72.000000, 412.000000, 120.000000
17871, 36.000000, 416.000000, 120.000000
17872, 40.000000, 416.000000, 120.000000
17873, 44.000000, 416.000000, 120.000000
17874, 48.000000, 416.000000, 120.000000
17875, 52.000000, 416.000000, 120.000000
17876, 56.000000, 416.000000, 120.000000
17877, 60.000000, 416.000000, 120.000000
17878, 64.000000, 416.000000, 120.000000
17879, 68.000000, 416.000000, 120.000000
17880, 72.000000, 416.000000, 120.000000
17881, 36.000000, 420.000000, 120.000000
17882, 40.000000, 420.000000, 120.000000
17883, 44.000000, 420.000000, 120.000000
17884, 48.000000, 420.000000, 120.000000
17885, 52.000000, 420.000000, 120.000000
17886, 56.000000, 420.000000, 120.000000
17887, 60.000000, 420.000000, 120.000000
17888, 64.000000, 420.000000, 120.000000
17889, 68.000000, 420.000000, 120.000000
17890, 72.000000, 420.000000, 120.000000
17891, 36.000000, 424.000000, 120.000000
17892, 40.000000, 424.000000, 120.000000
17893, 44.000000, 424.000000, 120.000000
17894, 48.000000, 424.000000, 120.000000
17895, 52.000000, 424.000000, 120.000000
17896, 56.000000, 424.000000, 120.000000
17897, 60.000000, 424.000000, 120.000000
17898, 64.000000, 424.000000, 120.000000
17899, 68.000000, 424.000000, 120.000000
17900, 72.000000, 424.000000, 120.000000
17901, 36.000000, 428.000000, 120.000000
17902, 40.000000, 428.000000, 120.000000
17903, 44.000000, 428.000000, 120.000000
17904, 48.000000, 428.000000, 120.000000
17905, 52.000000, 428.000000, 120.000000
17906, 56.000000, 428.000000, 120.000000
17907, 60.000000, 428.000000, 120.000000
17908, 64.000000, 428.000000, 120.000000
17909, 68.000000, 428.000000, 120.000000
17910, 72.000000, 428.000000, 120.000000
17911, 36.000000, 432.000000, 120.000000
17912, 40.000000, 432.000000, 120.000000
17913, 44.000000, 432.000000, 120.000000
17914, 48.000000, 432.000000, 120.000000
17915, 52.000000, 432.000000, 120.000000
17916, 56.000000, 432.000000, 120.000000
17917, 60.000000, 432.000000, 120.000000
17918, 64.000000, 432.000000, 120.000000
17919, 68.000000, 432.000000, 120.000000
17920, 72.000000, 432.000000, 120.000000
17921, 36.000000, 436.000000, 120.000000
17922, 40.000000, 436.000000, 120.000000
17923, 44.000000, 436.000000, 120.000000
17924, 48.000000, 436.000000, 120.000000
17925, 52.000000, 436.000000, 120.000000
17926, 56.000000, 436.000000, 120.000000
17927, 60.000000, 436.000000, 120.000000
17928, 64.000000, 436.000000, 120.000000
17929, 68.000000, 436.000000, 120.000000
17930, 72.000000, 436.000000, 120.000000
17931, 36.000000, 440.000000, 120.000000
17932, 40.000000, 440.000000, 120.000000
17933, 44.000000, 440.000000, 120.000000
17934, 48.000000, 440.000000, 120.000000
17935, 52.000000, 440.000000, 120.000000
17936, 56.000000, 440.000000, 120.000000
17937, 60.000000, 440.000000, 120.000000
17938, 64.000000, 440.000000, 120.000000
17939, 68.000000, 440.000000, 120.000000
17940, 72.000000, 440.000000, 120.000000
17941, 36.000000, 444.000000, 120.000000
17942, 40.000000, 444.000000, 120.000000
17943, 44.000000, 444.000000, 120.000000
17944, 48.000000, 444.000000, 120.000000
17945, 52.000000, 444.000000, 120.000000
17946, 56.000000, 444.000000, 120.000000
17947, 60.000000, 444.000000, 120.000000
17948, 64.000000, 444.000000, 120.000000
17949, 68.000000, 444.000000, 120.000000
17950, 72.000000, 444.000000, 120.000000
17951, 36.000000, 448.000000, 120.000000
17952, 40.000000, 448.000000, 120.000000
17953, 44.000000, 448.000000, 120.000000
17954, 48.000000, 448.000000, 120.000000
17955, 52.000000, 448.000000, 120.000000
17956, 56.000000, 448.000000, 120.000000
17957, 60.000000, 448.000000, 120.000000
17958, 64.000000, 448.000000, 120.000000
17959, 68.000000, 448.000000, 120.000000
17960, 72.000000, 448.000000, 120.000000
17961, 36.000000, 452.000000, 120.000000
17962, 40.000000, 452.000000, 120.000000
17963, 44.000000, 452.000000, 120.000000
17964, 48.000000, 452.000000, 120.000000
17965, 52.000000, 452.000000, 120.000000
17966, 56.000000, 452.000000, 120.000000
17967, 60.000000, 452.000000, 120.000000
17968, 64.000000, 452.000000, 120.000000
17969, 68.000000, 452.000000, 120.000000
17970, 72.000000, 452.000000, 120.000000
17971, 36.000000, 456.000000, 120.000000
17972, 40.000000, 456.000000, 120.000000
17973, 44.000000, 456.000000, 120.000000
17974, 48.000000, 456.000000, 120.000000
17975, 52.000000, 456.000000, 120.000000
17976, 56.000000, 456.000000, 120.000000
17977, 60.000000, 456.000000, 120.000000
17978, 64.000000, 456.000000, 120.000000
17979, 68.000000, 456.000000, 120.000000
17980, 72.000000, 456.000000, 120.000000
17981, 36.000000, 228.000000, 124.000000
17982, 40.000000, 228.000000, 124.000000
17983, 44.000000, 228.000000, 124.000000
17984, 48.000000, 228.000000, 124.000000
17985, 52.000000, 228.000000, 124.000000
17986, 56.000000, 228.000000, 124.000000
17987, 60.000000, 228.000000, 124.000000
17988, 64.000000, 228.000000, 124.000000
17989, 68.000000, 228.000000, 124.000000
17990, 72.000000, 228.000000, 124.000000
17991, 36.000000, 232.000000, 124.000000
17992, 40.000000, 232.000000, 124.000000
17993, 44.000000, 232.000000, 124.000000
17994, 48.000000, 232.000000, 124.000000
17995, 52.000000, 232.000000, 124.000000
17996, 56.000000, 232.000000, 124.000000
17997, 60.000000, 232.000000, 124.000000
17998, 64.000000, 232.000000, 124.000000
17999, 68.000000, 232.000000, 124.000000
18000, 72.000000, 232.000000, 124.000000
18001, 36.000000, 236.000000, 124.000000
18002, 40.000000, 236.000000, 124.000000
18003, 44.000000, 236.000000, 124.000000
18004, 48.000000, 236.000000, 124.000000
18005, 52.000000, 236.000000, 124.000000
18006, 56.000000, 236.000000, 124.000000
18007, 60.000000, 236.000000, 124.000000
18008, 64.000000, 236.000000, 124.000000
18009, 68.000000, 236.000000, 124.000000
18010, 72.000000, 236.000000, 124.000000
18011, 36.000000, 240.000000, 124.000000
18012, 40.000000, 240.000000, 124.000000
18013, 44.000000, 240.000000, 124.000000
18014, 48.000000, 240.000000, 124.000000
18015, 52.000000, 240.000000, 124.000000
18016, 56.000000, 240.000000, 124.000000
18017, 60.000000, 240.000000, 124.000000
18018, 64.000000, 240.000000, 124.000000
18019, 68.000000, 240.000000, 124.000000
18020, 72.000000, 240.000000, 124.000000
18021, 36.000000, 244.000000, 124.000000
18022, 40.000000, 244.000000, 124.000000
18023, 44.000000, 244.000000, 124.000000
18024, 48.000000, 244.000000, 124.000000
18025, 52.000000, 244.000000, 124.000000
18026, 56.000000, 244.000000, 124.000000
18027, 60.000000, 244.000000, 124.000000
18028, 64.000000, 244.000000, 124.000000
18029, 68.000000, 244.000000, 124.000000
18030, 72.000000, 244.000000, 124.000000
18031, 36.000000, 248.000000, 124.000000
18032, 40.000000, 248.000000, 124.000000
18033, 44.000000, 248.000000, 124.000000
18034, 48.000000, 248.000000, 124.000000
18035, 52.000000, 248.000000, 124.000000
18036, 56.000000, 248.000000, 124.000000
18037, 60.000000, 248.000000, 124.000000
18038, 64.000000, 248.000000, 124.000000
18039, 68.000000, 248.000000, 124.000000
18040, 72.000000, 248.000000, 124.000000
18041, 36.000000, 252.000000, 124.000000
18042, 40.000000, 252.000000, 124.000000
18043, 44.000000, 252.000000, 124.000000
18044, 48.000000, 252.000000, 124.000000
18045, 52.000000, 252.000000, 124.000000
18046, 56.000000, 252.000000, 124.000000
18047, 60.000000, 252.000000, 124.000000
18048, 64.000000, 252.000000, 124.000000
18049, 68.000000, 252.000000, 124.000000
18050, 72.000000, 252.000000, 124.000000
18051, 36.000000, 256.000000, 124.000000
18052, 40.000000, 256.000000, 124.000000
18053, 44.000000, 256.000000, 124.000000
18054, 48.000000, 256.000000, 124.000000
18055, 52.000000, 256.000000, 124.000000
18056, 56.000000, 256.000000, 124.000000
18057, 60.000000, 256.000000, 124.000000
18058, 64.000000, 256.000000, 124.000000
18059, 68.000000, 256.000000, 124.000000
18060, 72.000000, 256.000000, 124.000000
18061, 36.000000, 260.000000, 124.000000
18062, 40.000000, 260.000000, 124.000000
18063, 44.000000, 260.000000, 124.000000
18064, 48.000000, 260.000000, 124.000000
18065, 52.000000, 260.000000, 124.000000
18066, 56.000000, 260.000000, 124.000000
18067, 60.000000, 260.000000, 124.000000
18068, 64.000000, 260.000000, 124.000000
18069, 68.000000, 260.000000, 124.000000
18070, 72.000000, 260.000000, 124.000000
18071, 36.000000, 264.000000, 124.000000
18072, 40.000000, 264.000000, 124.000000
18073, 44.000000, 264.000000, 124.000000
18074, 48.000000, 264.000000, 124.000000
18075, 52.000000, 264.000000, 124.000000
18076, 56.000000, 264.000000, 124.000000
18077, 60.000000, 264.000000, 124.000000
18078, 64.000000, 264.000000, 124.000000
18079, 68.000000, 264.000000, 124.000000
18080, 72.000000, 264.000000, 124.000000
18081, 36.000000, 268.000000, 124.000000
18082, 40.000000, 268.000000, 124.000000
18083, 44.000000, 268.000000, 124.000000
18084, 48.000000, 268.000000, 124.000000
18085, 52.000000, 268.000000, 124.000000
18086, 56.000000, 268.000000, 124.000000
18087, 60.000000, 268.000000, 124.000000
18088, 64.000000, 268.000000, 124.000000
18089, 68.000000, 268.000000, 124.000000
18090, 72.000000, 268.000000, 124.000000
18091, 36.000000, 272.000000, 124.000000
18092, 40.000000, 272.000000, 124.000000
18093, 44.000000, 272.000000, 124.000000
18094, 48.000000, 272.000000, 124.000000
18095, 52.000000, 272.000000, 124.000000
18096, 56.000000, 272.000000, 124.000000
18097, 60.000000, 272.000000, 124.000000
18098, 64.000000, 272.000000, 124.000000
18099, 68.000000, 272.000000, 124.000000
18100, 72.000000, 272.000000, 124.000000
18101, 36.000000, 276.000000, 124.000000
18102, 40.000000, 276.000000, 124.000000
18103, 44.000000, 276.000000, 124.000000
18104, 48.000000, 276.000000, 124.000000
18105, 52.000000, 276.000000, 124.000000
18106, 56.000000, 276.000000, 124.000000
18107, 60.000000, 276.000000, 124.000000
18108, 64.000000, 276.000000, 124.000000
18109, 68.000000, 276.000000, 124.000000
18110, 72.000000, 276.000000, 124.000000
18111, 36.000000, 280.000000, 124.000000
18112, 40.000000, 280.000000, 124.000000
18113, 44.000000, 280.000000, 124.000000
18114, 48.000000, 280.000000, 124.000000
18115, 52.000000, 280.000000, 124.000000
18116, 56.000000, 280.000000, 124.000000
18117, 60.000000, 280.000000, 124.000000
18118, 64.000000, 280.000000, 124.000000
18119, 68.000000, 280.000000, 124.000000
18120, 72.000000, 280.000000, 124.000000
18121, 36.000000, 284.000000, 124.000000
18122, 40.000000, 284.000000, 124.000000
18123, 44.000000, 284.000000, 124.000000
18124, 48.000000, 284.000000, 124.000000
18125, 52.000000, 284.000000, 124.000000
18126, 56.000000, 284.000000, 124.000000
18127, 60.000000, 284.000000, 124.000000
18128, 64.000000, 284.000000, 124.000000
18129, 68.000000, 284.000000, 124.000000
18130, 72.000000, 284.000000, 124.000000
18131, 36.000000, 288.000000, 124.000000
18132, 40.000000, 288.000000, 124.000000
18133, 44.000000, 288.000000, 124.000000
18134, 48.000000, 288.000000, 124.000000
18135, 52.000000, 288.000000, 124.000000
18136, 56.000000, 288.000000, 124.000000
18137, 60.000000, 288.000000, 124.000000
18138, 64.000000, 288.000000, 124.000000
18139, 68.000000, 288.000000, 124.000000
18140, 72.000000, 288.000000, 124.000000
18141, 36.000000, 292.000000, 124.000000
18142, 40.000000, 292.000000, 124.000000
18143, 44.000000, 292.000000, 124.000000
18144, 48.000000, 292.000000, 124.000000
18145, 52.000000, 292.000000, 124.000000
18146, 56.000000, 292.000000, 124.000000
18147, 60.000000, 292.000000, 124.000000
18148, 64.000000, 292.000000, 124.000000
18149, 68.000000, 292.000000, 124.000000
18150, 72.000000, 292.000000, 124.000000
18151, 36.000000, 296.000000, 124.000000
18152, 40.000000, 296.000000, 124.000000
18153, 44.000000, 296.000000, 124.000000
18154, 48.000000, 296.000000, 124.000000
18155, 52.000000, 296.000000, 124.000000
18156, 56.000000, 296.000000, 124.000000
18157, 60.000000, 296.000000, 124.000000
18158, 64.000000, 296.000000, 124.000000
18159, 68.000000, 296.000000, 124.000000
18160, 72.000000, 296.000000, 124.000000
18161, 36.000000, 300.000000, 124.000000
18162, 40.000000, 300.000000, 124.000000
18163, 44.000000, 300.000000, 124.000000
18164, 48.000000, 300.000000, 124.000000
18165, 52.000000, 300.000000, 124.000000
18166, 56.000000, 300.000000, 124.000000
18167, 60.000000, 300.000000, 124.000000
18168, 64.000000, 300.000000, 124.000000
18169, 68.000000, 300.000000, 124.000000
18170, 72.000000, 300.000000, 124.000000
18171, 36.000000, 304.000000, 124.000000
18172, 40.000000, 304.000000, 124.000000
18173, 44.000000, 304.000000, 124.000000
18174, 48.000000, 304.000000, 124.000000
18175, 52.000000, 304.000000, 124.000000
18176, 56.000000, 304.000000, 124.000000
18177, 60.000000, 304.000000, 124.000000
18178, 64.000000, 304.000000, 124.000000
18179, 68.000000, 304.000000, 124.000000
18180, 72.000000, 304.000000, 124.000000
18181, 36.000000, 308.000000, 124.000000
18182, 40.000000, 308.000000, 124.000000
18183, 44.000000, 308.000000, 124.000000
18184, 48.000000, 308.000000, 124.000000
18185, 52.000000, 308.000000, 124.000000
18186, 56.000000, 308.000000, 124.000000
18187, 60.000000, 308.000000, 124.000000
18188, 64.000000, 308.000000, 124.000000
18189, 68.000000, 308.000000, 124.000000
18190, 72.000000, 308.000000, 124.000000
18191, 36.000000, 312.000000, 124.000000
18192, 40.000000, 312.000000, 124.000000
18193, 44.000000, 312.000000, 124.000000
18194, 48.000000, 312.000000, 124.000000
18195, 52.000000, 312.000000, 124.000000
18196, 56.000000, 312.000000, 124.000000
18197, 60.000000, 312.000000, 124.000000
18198, 64.000000, 312.000000, 124.000000
18199, 68.000000, 312.000000, 124.000000
18200, 72.000000, 312.000000, 124.000000
18201, 36.000000, 316.000000, 124.000000
18202, 40.000000, 316.000000, 124.000000
18203, 44.000000, 316.000000, 124.000000
18204, 48.000000, 316.000000, 124.000000
18205, 52.000000, 316.000000, 124.000000
18206, 56.000000, 316.000000, 124.000000
18207, 60.000000, 316.000000, 124.000000
18208, 64.000000, 316.000000, 124.000000
18209, 68.000000, 316.000000, 124.000000
18210, 72.000000, 316.000000, 124.000000
18211, 36.000000, 320.000000, 124.000000
18212, 40.000000, 320.000000, 124.000000
18213, 44.000000, 320.000000, 124.000000
18214, 48.000000, 320.000000, 124.000000
18215, 52.000000, 320.000000, 124.000000
18216, 56.000000, 320.000000, 124.000000
18217, 60.000000, 320.000000, 124.000000
18218, 64.000000, 320.000000, 124.000000
18219, 68.000000, 320.000000, 124.000000
18220, 72.000000, 320.000000, 124.000000
18221, 36.000000, 324.000000, 124.000000
18222, 40.000000, 324.000000, 124.000000
18223, 44.000000, 324.000000, 124.000000
18224, 48.000000, 324.000000, 124.000000
18225, 52.000000, 324.000000, 124.000000
18226, 56.000000, 324.000000, 124.000000
18227, 60.000000, 324.000000, 124.000000
18228, 64.000000, 324.000000, 124.000000
18229, 68.000000, 324.000000, 124.000000
18230, 72.000000, 324.000000, 124.000000
18231, 36.000000, 328.000000, 124.000000
18232, 40.000000, 328.000000, 124.000000
18233, 44.000000, 328.000000, 124.000000
18234, 48.000000, 328.000000, 124.000000
18235, 52.000000, 328.000000, 124.000000
18236, 56.000000, 328.000000, 124.000000
18237, 60.000000, 328.000000, 124.000000
18238, 64.000000, 328.000000, 124.000000
18239, 68.000000, 328.000000, 124.000000
18240, 72.000000, 328.000000, 124.000000
18241, 36.000000, 332.000000, 124.000000
18242, 40.000000, 332.000000, 124.000000
18243, 44.000000, 332.000000, 124.000000
18244, 48.000000, 332.000000, 124.000000
18245, 52.000000, 332.000000, 124.000000
18246, 56.000000, 332.000000, 124.000000
18247, 60.000000, 332.000000, 124.000000
18248, 64.000000, 332.000000, 124.000000
18249, 68.000000, 332.000000, 124.000000
18250, 72.000000, 332.000000, 124.000000
18251, 36.000000, 336.000000, 124.000000
18252, 40.000000, 336.000000, 124.000000
18253, 44.000000, 336.000000, 124.000000
18254, 48.000000, 336.000000, 124.000000
18255, 52.000000, 336.000000, 124.000000
18256, 56.000000, 336.000000, 124.000000
18257, 60.000000, 336.000000, 124.000000
18258, 64.000000, 336.000000, 124.000000
18259, 68.000000, 336.000000, 124.000000
18260, 72.000000, 336.000000, 124.000000
18261, 36.000000, 340.000000, 124.000000
18262, 40.000000, 340.000000, 124.000000
18263, 44.000000, 340.000000, 124.000000
18264, 48.000000, 340.000000, 124.000000
18265, 52.000000, 340.000000, 124.000000
18266, 56.000000, 340.000000, 124.000000
18267, 60.000000, 340.000000, 124.000000
18268, 64.000000, 340.000000, 124.000000
18269, 68.000000, 340.000000, 124.000000
18270, 72.000000, 340.000000, 124.000000
18271, 36.000000, 344.000000, 124.000000
18272, 40.000000, 344.000000, 124.000000
18273, 44.000000, 344.000000, 124.000000
18274, 48.000000, 344.000000, 124.000000
18275, 52.000000, 344.000000, 124.000000
18276, 56.000000, 344.000000, 124.000000
18277, 60.000000, 344.000000, 124.000000
18278, 64.000000, 344.000000, 124.000000
18279, 68.000000, 344.000000, 124.000000
18280, 72.000000, 344.000000, 124.000000
18281, 36.000000, 348.000000, 124.000000
18282, 40.000000, 348.000000, 124.000000
18283, 44.000000, 348.000000, 124.000000
18284, 48.000000, 348.000000, 124.000000
18285, 52.000000, 348.000000, 124.000000
18286, 56.000000, 348.000000, 124.000000
18287, 60.000000, 348.000000, 124.000000
18288, 64.000000, 348.000000, 124.000000
18289, 68.000000, 348.000000, 124.000000
18290, 72.000000, 348.000000, 124.000000
18291, 36.000000, 352.000000, 124.000000
18292, 40.000000, 352.000000, 124.000000
18293, 44.000000, 352.000000, 124.000000
18294, 48.000000, 352.000000, 124.000000
18295, 52.000000, 352.000000, 124.000000
18296, 56.000000, 352.000000, 124.000000
18297, 60.000000, 352.000000, 124.000000
18298, 64.000000, 352.000000, 124.000000
18299, 68.000000, 352.000000, 124.000000
18300, 72.000000, 352.000000, 124.000000
18301, 36.000000, 356.000000, 124.000000
18302, 40.000000, 356.000000, 124.000000
18303, 44.000000, 356.000000, 124.000000
18304, 48.000000, 356.000000, 124.000000
18305, 52.000000, 356.000000, 124.000000
18306, 56.000000, 356.000000, 124.000000
18307, 60.000000, 356.000000, 124.000000
18308, 64.000000, 356.000000, 124.000000
18309, 68.000000, 356.000000, 124.000000
18310, 72.000000, 356.000000, 124.000000
18311, 36.000000, 360.000000, 124.000000
18312, 40.000000, 360.000000, 124.000000
18313, 44.000000, 360.000000, 124.000000
18314, 48.000000, 360.000000, 124.000000
18315, 52.000000, 360.000000, 124.000000
18316, 56.000000, 360.000000, 124.000000
18317, 60.000000, 360.000000, 124.000000
18318, 64.000000, 360.000000, 124.000000
18319, 68.000000, 360.000000, 124.000000
18320, 72.000000, 360.000000, 124.000000
18321, 36.000000, 364.000000, 124.000000
18322, 40.000000, 364.000000, 124.000000
18323, 44.000000, 364.000000, 124.000000
18324, 48.000000, 364.000000, 124.000000
18325, 52.000000, 364.000000, 124.000000
18326, 56.000000, 364.000000, 124.000000
18327, 60.000000, 364.000000, 124.000000
18328, 64.000000, 364.000000, 124.000000
18329, 68.000000, 364.000000, 124.000000
18330, 72.000000, 364.000000, 124.000000
18331, 36.000000, 368.000000, 124.000000
18332, 40.000000, 368.000000, 124.000000
18333, 44.000000, 368.000000, 124.000000
18334, 48.000000, 368.000000, 124.000000
18335, 52.000000, 368.000000, 124.000000
18336, 56.000000, 368.000000, 124.000000
18337, 60.000000, 368.000000, 124.000000
18338, 64.000000, 368.000000, 124.000000
18339, 68.000000, 368.000000, 124.000000
18340, 72.000000, 368.000000, 124.000000
18341, 36.000000, 372.000000, 124.000000
18342, 40.000000, 372.000000, 124.000000
18343, 44.000000, 372.000000, 124.000000
18344, 48.000000, 372.000000, 124.000000
18345, 52.000000, 372.000000, 124.000000
18346, 56.000000, 372.000000, 124.000000
18347, 60.000000, 372.000000, 124.000000
18348, 64.000000, 372.000000, 124.000000
18349, 68.000000, 372.000000, 124.000000
18350, 72.000000, 372.000000, 124.000000
18351, 36.000000, 376.000000, 124.000000
18352, 40.000000, 376.000000, 124.000000
18353, 44.000000, 376.000000, 124.000000
18354, 48.000000, 376.000000, 124.000000
18355, 52.000000, 376.000000, 124.000000
18356, 56.000000, 376.000000, 124.000000
18357, 60.000000, 376.000000, 124.000000
18358, 64.000000, 376.000000, 124.000000
18359, 68.000000, 376.000000, 124.000000
18360, 72.000000, 376.000000, 124.000000
18361, 36.000000, 380.000000, 124.000000
18362, 40.000000, 380.000000, 124.000000
18363, 44.000000, 380.000000, 124.000000
18364, 48.000000, 380.000000, 124.000000
18365, 52.000000, 380.000000, 124.000000
18366, 56.000000, 380.000000, 124.000000
18367, 60.000000, 380.000000, 124.000000
18368, 64.000000, 380.000000, 124.000000
18369, 68.000000, 380.000000, 124.000000
18370, 72.000000, 380.000000, 124.000000
18371, 36.000000, 384.000000, 124.000000
18372, 40.000000, 384.000000, 124.000000
18373, 44.000000, 384.000000, 124.000000
18374, 48.000000, 384.000000, 124.000000
18375, 52.000000, 384.000000, 124.000000
18376, 56.000000, 384.000000, 124.000000
18377, 60.000000, 384.000000, 124.000000
18378, 64.000000, 384.000000, 124.000000
18379, 68.000000, 384.000000, 124.000000
18380, 72.000000, 384.000000, 124.000000
18381, 36.000000, 388.000000, 124.000000
18382, 40.000000, 388.000000, 124.000000
18383, 44.000000, 388.000000, 124.000000
18384, 48.000000, 388.000000, 124.000000
18385, 52.000000, 388.000000, 124.000000
18386, 56.000000, 388.000000, 124.000000
18387, 60.000000, 388.000000, 124.000000
18388, 64.000000, 388.000000, 124.000000
18389, 68.000000, 388.000000, 124.000000
18390, 72.000000, 388.000000, 124.000000
18391, 36.000000, 392.000000, 124.000000
18392, 40.000000, 392.000000, 124.000000
18393, 44.000000, 392.000000, 124.000000
18394, 48.000000, 392.000000, 124.000000
18395, 52.000000, 392.000000, 124.000000
18396, 56.000000, 392.000000, 124.000000
18397, 60.000000, 392.000000, 124.000000
18398, 64.000000, 392.000000, 124.000000
18399, 68.000000, 392.000000, 124.000000
18400, 72.000000, 392.000000, 124.000000
18401, 36.000000, 396.000000, 124.000000
18402, 40.000000, 396.000000, 124.000000
18403, 44.000000, 396.000000, 124.000000
18404, 48.000000, 396.000000, 124.000000
18405, 52.000000, 396.000000, 124.000000
18406, 56.000000, 396.000000, 124.000000
18407, 60.000000, 396.000000, 124.000000
18408, 64.000000, 396.000000, 124.000000
18409, 68.000000, 396.000000, 124.000000
18410, 72.000000, 396.000000, 124.000000
18411, 36.000000, 400.000000, 124.000000
18412, 40.000000, 400.000000, 124.000000
18413, 44.000000, 400.000000, 124.000000
18414, 48.000000, 400.000000, 124.000000
18415, 52.000000, 400.000000, 124.000000
18416, 56.000000, 400.000000, 124.000000
18417, 60.000000, 400.000000, 124.000000
18418, 64.000000, 400.000000, 124.000000
18419, 68.000000, 400.000000, 124.000000
18420, 72.000000, 400.000000, 124.000000
18421, 36.000000, 404.000000, 124.000000
18422, 40.000000, 404.000000, 124.000000
18423, 44.000000, 404.000000, 124.000000
18424, 48.000000, 404.000000, 124.000000
18425, 52.000000, 404.000000, 124.000000
18426, 56.000000, 404.000000, 124.000000
18427, 60.000000, 404.000000, 124.000000
18428, 64.000000, 404.000000, 124.000000
18429, 68.000000, 404.000000, 124.000000
18430, 72.000000, 404.000000, 124.000000
18431, 36.000000, 408.000000, 124.000000
18432, 40.000000, 408.000000, 124.000000
18433, 44.000000, 408.000000, 124.000000
18434, 48.000000, 408.000000, 124.000000
18435, 52.000000, 408.000000, 124.000000
18436, 56.000000, 408.000000, 124.000000
18437, 60.000000, 408.000000, 124.000000
18438, 64.000000, 408.000000, 124.000000
18439, 68.000000, 408.000000, 124.000000
18440, 72.000000, 408.000000, 124.000000
18441, 36.000000, 412.000000, 124.000000
18442, 40.000000, 412.000000, 124.000000
18443, 44.000000, 412.000000, 124.000000
18444, 48.000000, 412.000000, 124.000000
18445, 52.000000, 412.000000, 124.000000
18446, 56.000000, 412.000000, 124.000000
18447, 60.000000, 412.000000, 124.000000
18448, 64.000000, 412.000000, 124.000000
18449, 68.000000, 412.000000, 124.000000
18450, 72.000000, 412.000000, 124.000000
18451, 36.000000, 416.000000, 124.000000
18452, 40.000000, 416.000000, 124.000000
18453, 44.000000, 416.000000, 124.000000
18454, 48.000000, 416.000000, 124.000000
18455, 52.000000, 416.000000, 124.000000
18456, 56.000000, 416.000000, 124.000000
18457, 60.000000, 416.000000, 124.000000
18458, 64.000000, 416.000000, 124.000000
18459, 68.000000, 416.000000, 124.000000
18460, 72.000000, 416.000000, 124.000000
18461, 36.000000, 420.000000, 124.000000
18462, 40.000000, 420.000000, 124.000000
18463, 44.000000, 420.000000, 124.000000
18464, 48.000000, 420.000000, 124.000000
18465, 52.000000, 420.000000, 124.000000
18466, 56.000000, 420.000000, 124.000000
18467, 60.000000, 420.000000, 124.000000
18468, 64.000000, 420.000000, 124.000000
18469, 68.000000, 420.000000, 124.000000
18470, 72.000000, 420.000000, 124.000000
18471, 36.000000, 424.000000, 124.000000
18472, 40.000000, 424.000000, 124.000000
18473, 44.000000, 424.000000, 124.000000
18474, 48.000000, 424.000000, 124.000000
18475, 52.000000, 424.000000, 124.000000
18476, 56.000000, 424.000000, 124.000000
18477, 60.000000, 424.000000, 124.000000
18478, 64.000000, 424.000000, 124.000000
18479, 68.000000, 424.000000, 124.000000
18480, 72.000000, 424.000000, 124.000000
18481, 36.000000, 428.000000, 124.000000
18482, 40.000000, 428.000000, 124.000000
18483, 44.000000, 428.000000, 124.000000
18484, 48.000000, 428.000000, 124.000000
18485, 52.000000, 428.000000, 124.000000
18486, 56.000000, 428.000000, 124.000000
18487, 60.000000, 428.000000, 124.000000
18488, 64.000000, 428.000000, 124.000000
18489, 68.000000, 428.000000, 124.000000
18490, 72.000000, 428.000000, 124.000000
18491, 36.000000, 432.000000, 124.000000
18492, 40.000000, 432.000000, 124.000000
18493, 44.000000, 432.000000, 124.000000
18494, 48.000000, 432.000000, 124.000000
18495, 52.000000, 432.000000, 124.000000
18496, 56.000000, 432.000000, 124.000000
18497, 60.000000, 432.000000, 124.000000
18498, 64.000000, 432.000000, 124.000000
18499, 68.000000, 432.000000, 124.000000
18500, 72.000000, 432.000000, 124.000000
18501, 36.000000, 436.000000, 124.000000
18502, 40.000000, 436.000000, 124.000000
18503, 44.000000, 436.000000, 124.000000
18504, 48.000000, 436.000000, 124.000000
18505, 52.000000, 436.000000, 124.000000
18506, 56.000000, 436.000000, 124.000000
18507, 60.000000, 436.000000, 124.000000
18508, 64.000000, 436.000000, 124.000000
18509, 68.000000, 436.000000, 124.000000
18510, 72.000000, 436.000000, 124.000000
18511, 36.000000, 440.000000, 124.000000
18512, 40.000000, 440.000000, 124.000000
18513, 44.000000, 440.000000, 124.000000
18514, 48.000000, 440.000000, 124.000000
18515, 52.000000, 440.000000, 124.000000
18516, 56.000000, 440.000000, 124.000000
18517, 60.000000, 440.000000, 124.000000
18518, 64.000000, 440.000000, 124.000000
18519, 68.000000, 440.000000, 124.000000
18520, 72.000000, 440.000000, 124.000000
18521, 36.000000, 444.000000, 124.000000
18522, 40.000000, 444.000000, 124.000000
18523, 44.000000, 444.000000, 124.000000
18524, 48.000000, 444.000000, 124.000000
18525, 52.000000, 444.000000, 124.000000
18526, 56.000000, 444.000000, 124.000000
18527, 60.000000, 444.000000, 124.000000
18528, 64.000000, 444.000000, 124.000000
18529, 68.000000, 444.000000, 124.000000
18530, 72.000000, 444.000000, 124.000000
18531, 36.000000, 448.000000, 124.000000
18532, 40.000000, 448.000000, 124.000000
18533, 44.000000, 448.000000, 124.000000
18534, 48.000000, 448.000000, 124.000000
18535, 52.000000, 448.000000, 124.000000
18536, 56.000000, 448.000000, 124.000000
18537, 60.000000, 448.000000, 124.000000
18538, 64.000000, 448.000000, 124.000000
18539, 68.000000, 448.000000, 124.000000
18540, 72.000000, 448.000000, 124.000000
18541, 36.000000, 452.000000, 124.000000
18542, 40.000000, 452.000000, 124.000000
18543, 44.000000, 452.000000, 124.000000
18544, 48.000000, 452.000000, 124.000000
18545, 52.000000, 452.000000, 124.000000
18546, 56.000000, 452.000000, 124.000000
18547, 60.000000, 452.000000, 124.000000
18548, 64.000000, 452.000000, 124.000000
18549, 68.000000, 452.000000, 124.000000
18550, 72.000000, 452.000000, 124.000000
18551, 36.000000, 456.000000, 124.000000
18552, 40.000000, 456.000000, 124.000000
18553, 44.000000, 456.000000, 124.000000
18554, 48.000000, 456.000000, 124.000000
18555, 52.000000, 456.000000, 124.000000
18556, 56.000000, 456.000000, 124.000000
18557, 60.000000, 456.000000, 124.000000
18558, 64.000000, 456.000000, 124.000000
18559, 68.000000, 456.000000, 124.000000
18560, 72.000000, 456.000000, 124.000000
18561, 36.000000, 228.000000, 128.000000
18562, 40.000000, 228.000000, 128.000000
18563, 44.000000, 228.000000, 128.000000
18564, 48.000000, 228.000000, 128.000000
18565, 52.000000, 228.000000, 128.000000
18566, 56.000000, 228.000000, 128.000000
18567, 60.000000, 228.000000, 128.000000
18568, 64.000000, 228.000000, 128.000000
18569, 68.000000, 228.000000, 128.000000
18570, 72.000000, 228.000000, 128.000000
18571, 36.000000, 232.000000, 128.000000
18572, 40.000000, 232.000000, 128.000000
18573, 44.000000, 232.000000, 128.000000
18574, 48.000000, 232.000000, 128.000000
18575, 52.000000, 232.000000, 128.000000
18576, 56.000000, 232.000000, 128.000000
18577, 60.000000, 232.000000, 128.000000
18578, 64.000000, 232.000000, 128.000000
18579, 68.000000, 232.000000, 128.000000
18580, 72.000000, 232.000000, 128.000000
18581, 36.000000, 236.000000, 128.000000
18582, 40.000000, 236.000000, 128.000000
18583, 44.000000, 236.000000, 128.000000
18584, 48.000000, 236.000000, 128.000000
18585, 52.000000, 236.000000, 128.000000
18586, 56.000000, 236.000000, 128.000000
18587, 60.000000, 236.000000, 128.000000
18588, 64.000000, 236.000000, 128.000000
18589, 68.000000, 236.000000, 128.000000
18590, 72.000000, 236.000000, 128.000000
18591, 36.000000, 240.000000, 128.000000
18592, 40.000000, 240.000000, 128.000000
18593, 44.000000, 240.000000, 128.000000
18594, 48.000000, 240.000000, 128.000000
18595, 52.000000, 240.000000, 128.000000
18596, 56.000000, 240.000000, 128.000000
18597, 60.000000, 240.000000, 128.000000
18598, 64.000000, 240.000000, 128.000000
18599, 68.000000, 240.000000, 128.000000
18600, 72.000000, 240.000000, 128.000000
18601, 36.000000, 244.000000, 128.000000
18602, 40.000000, 244.000000, 128.000000
18603, 44.000000, 244.000000, 128.000000
18604, 48.000000, 244.000000, 128.000000
18605, 52.000000, 244.000000, 128.000000
18606, 56.000000, 244.000000, 128.000000
18607, 60.000000, 244.000000, 128.000000
18608, 64.000000, 244.000000, 128.000000
18609, 68.000000, 244.000000, 128.000000
18610, 72.000000, 244.000000, 128.000000
18611, 36.000000, 248.000000, 128.000000
18612, 40.000000, 248.000000, 128.000000
18613, 44.000000, 248.000000, 128.000000
18614, 48.000000, 248.000000, 128.000000
18615, 52.000000, 248.000000, 128.000000
18616, 56.000000, 248.000000, 128.000000
18617, 60.000000, 248.000000, 128.000000
18618, 64.000000, 248.000000, 128.000000
18619, 68.000000, 248.000000, 128.000000
18620, 72.000000, 248.000000, 128.000000
18621, 36.000000, 252.000000, 128.000000
18622, 40.000000, 252.000000, 128.000000
18623, 44.000000, 252.000000, 128.000000
18624, 48.000000, 252.000000, 128.000000
18625, 52.000000, 252.000000, 128.000000
18626, 56.000000, 252.000000, 128.000000
18627, 60.000000, 252.000000, 128.000000
18628, 64.000000, 252.000000, 128.000000
18629, 68.000000, 252.000000, 128.000000
18630, 72.000000, 252.000000, 128.000000
18631, 36.000000, 256.000000, 128.000000
18632, 40.000000, 256.000000, 128.000000
18633, 44.000000, 256.000000, 128.000000
18634, 48.000000, 256.000000, 128.000000
18635, 52.000000, 256.000000, 128.000000
18636, 56.000000, 256.000000, 128.000000
18637, 60.000000, 256.000000, 128.000000
18638, 64.000000, 256.000000, 128.000000
18639, 68.000000, 256.000000, 128.000000
18640, 72.000000, 256.000000, 128.000000
18641, 36.000000, 260.000000, 128.000000
18642, 40.000000, 260.000000, 128.000000
18643, 44.000000, 260.000000, 128.000000
18644, 48.000000, 260.000000, 128.000000
18645, 52.000000, 260.000000, 128.000000
18646, 56.000000, 260.000000, 128.000000
18647, 60.000000, 260.000000, 128.000000
18648, 64.000000, 260.000000, 128.000000
18649, 68.000000, 260.000000, 128.000000
18650, 72.000000, 260.000000, 128.000000
18651, 36.000000, 264.000000, 128.000000
18652, 40.000000, 264.000000, 128.000000
18653, 44.000000, 264.000000, 128.000000
18654, 48.000000, 264.000000, 128.000000
18655, 52.000000, 264.000000, 128.000000
18656, 56.000000, 264.000000, 128.000000
18657, 60.000000, 264.000000, 128.000000
18658, 64.000000, 264.000000, 128.000000
18659, 68.000000, 264.000000, 128.000000
18660, 72.000000, 264.000000, 128.000000
18661, 36.000000, 268.000000, 128.000000
18662, 40.000000, 268.000000, 128.000000
18663, 44.000000, 268.000000, 128.000000
18664, 48.000000, 268.000000, 128.000000
18665, 52.000000, 268.000000, 128.000000
18666, 56.000000, 268.000000, 128.000000
18667, 60.000000, 268.000000, 128.000000
18668, 64.000000, 268.000000, 128.000000
18669, 68.000000, 268.000000, 128.000000
18670, 72.000000, 268.000000, 128.000000
18671, 36.000000, 272.000000, 128.000000
18672, 40.000000, 272.000000, 128.000000
18673, 44.000000, 272.000000, 128.000000
18674, 48.000000, 272.000000, 128.000000
18675, 52.000000, 272.000000, 128.000000
18676, 56.000000, 272.000000, 128.000000
18677, 60.000000, 272.000000, 128.000000
18678, 64.000000, 272.000000, 128.000000
18679, 68.000000, 272.000000, 128.000000
18680, 72.000000, 272.000000, 128.000000
18681, 36.000000, 276.000000, 128.000000
18682, 40.000000, 276.000000, 128.000000
18683, 44.000000, 276.000000, 128.000000
18684, 48.000000, 276.000000, 128.000000
18685, 52.000000, 276.000000, 128.000000
18686, 56.000000, 276.000000, 128.000000
18687, 60.000000, 276.000000, 128.000000
18688, 64.000000, 276.000000, 128.000000
18689, 68.000000, 276.000000, 128.000000
18690, 72.000000, 276.000000, 128.000000
18691, 36.000000, 280.000000, 128.000000
18692, 40.000000, 280.000000, 128.000000
18693, 44.000000, 280.000000, 128.000000
18694, 48.000000, 280.000000, 128.000000
18695, 52.000000, 280.000000, 128.000000
18696, 56.000000, 280.000000, 128.000000
18697, 60.000000, 280.000000, 128.000000
18698, 64.000000, 280.000000, 128.000000
18699, 68.000000, 280.000000, 128.000000
18700, 72.000000, 280.000000, 128.000000
18701, 36.000000, 284.000000, 128.000000
18702, 40.000000, 284.000000, 128.000000
18703, 44.000000, 284.000000, 128.000000
18704, 48.000000, 284.000000, 128.000000
18705, 52.000000, 284.000000, 128.000000
18706, 56.000000, 284.000000, 128.000000
18707, 60.000000, 284.000000, 128.000000
18708, 64.000000, 284.000000, 128.000000
18709, 68.000000, 284.000000, 128.000000
18710, 72.000000, 284.000000, 128.000000
18711, 36.000000, 288.000000, 128.000000
18712, 40.000000, 288.000000, 128.000000
18713, 44.000000, 288.000000, 128.000000
18714, 48.000000, 288.000000, 128.000000
18715, 52.000000, 288.000000, 128.000000
18716, 56.000000, 288.000000, 128.000000
18717, 60.000000, 288.000000, 128.000000
18718, 64.000000, 288.000000, 128.000000
18719, 68.000000, 288.000000, 128.000000
18720, 72.000000, 288.000000, 128.000000
18721, 36.000000, 292.000000, 128.000000
18722, 40.000000, 292.000000, 128.000000
18723, 44.000000, 292.000000, 128.000000
18724, 48.000000, 292.000000, 128.000000
18725, 52.000000, 292.000000, 128.000000
18726, 56.000000, 292.000000, 128.000000
18727, 60.000000, 292.000000, 128.000000
18728, 64.000000, 292.000000, 128.000000
18729, 68.000000, 292.000000, 128.000000
18730, 72.000000, 292.000000, 128.000000
18731, 36.000000, 296.000000, 128.000000
18732, 40.000000, 296.000000, 128.000000
18733, 44.000000, 296.000000, 128.000000
18734, 48.000000, 296.000000, 128.000000
18735, 52.000000, 296.000000, 128.000000
18736, 56.000000, 296.000000, 128.000000
18737, 60.000000, 296.000000, 128.000000
18738, 64.000000, 296.000000, 128.000000
18739, 68.000000, 296.000000, 128.000000
18740, 72.000000, 296.000000, 128.000000
18741, 36.000000, 300.000000, 128.000000
18742, 40.000000, 300.000000, 128.000000
18743, 44.000000, 300.000000, 128.000000
18744, 48.000000, 300.000000, 128.000000
18745, 52.000000, 300.000000, 128.000000
18746, 56.000000, 300.000000, 128.000000
18747, 60.000000, 300.000000, 128.000000
18748, 64.000000, 300.000000, 128.000000
18749, 68.000000, 300.000000, 128.000000
18750, 72.000000, 300.000000, 128.000000
18751, 36.000000, 304.000000, 128.000000
18752, 40.000000, 304.000000, 128.000000
18753, 44.000000, 304.000000, 128.000000
18754, 48.000000, 304.000000, 128.000000
18755, 52.000000, 304.000000, 128.000000
18756, 56.000000, 304.000000, 128.000000
18757, 60.000000, 304.000000, 128.000000
18758, 64.000000, 304.000000, 128.000000
18759, 68.000000, 304.000000, 128.000000
18760, 72.000000, 304.000000, 128.000000
18761, 36.000000, 308.000000, 128.000000
18762, 40.000000, 308.000000, 128.000000
18763, 44.000000, 308.000000, 128.000000
18764, 48.000000, 308.000000, 128.000000
18765, 52.000000, 308.000000, 128.000000
18766, 56.000000, 308.000000, 128.000000
18767, 60.000000, 308.000000, 128.000000
18768, 64.000000, 308.000000, 128.000000
18769, 68.000000, 308.000000, 128.000000
18770, 72.000000, 308.000000, 128.000000
18771, 36.000000, 312.000000, 128.000000
18772, 40.000000, 312.000000, 128.000000
18773, 44.000000, 312.000000, 128.000000
18774, 48.000000, 312.000000, 128.000000
18775, 52.000000, 312.000000, 128.000000
18776, 56.000000, 312.000000, 128.000000
18777, 60.000000, 312.000000, 128.000000
18778, 64.000000, 312.000000, 128.000000
18779, 68.000000, 312.000000, 128.000000
18780, 72.000000, 312.000000, 128.000000
18781, 36.000000, 316.000000, 128.000000
18782, 40.000000, 316.000000, 128.000000
18783, 44.000000, 316.000000, 128.000000
18784, 48.000000, 316.000000, 128.000000
18785, 52.000000, 316.000000, 128.000000
18786, 56.000000, 316.000000, 128.000000
18787, 60.000000, 316.000000, 128.000000
18788, 64.000000, 316.000000, 128.000000
18789, 68.000000, 316.000000, 128.000000
18790, 72.000000, 316.000000, 128.000000
18791, 36.000000, 320.000000, 128.000000
18792, 40.000000, 320.000000, 128.000000
18793, 44.000000, 320.000000, 128.000000
18794, 48.000000, 320.000000, 128.000000
18795, 52.000000, 320.000000, 128.000000
18796, 56.000000, 320.000000, 128.000000
18797, 60.000000, 320.000000, 128.000000
18798, 64.000000, 320.000000, 128.000000
18799, 68.000000, 320.000000, 128.000000
18800, 72.000000, 320.000000, 128.000000
18801, 36.000000, 324.000000, 128.000000
18802, 40.000000, 324.000000, 128.000000
18803, 44.000000, 324.000000, 128.000000
18804, 48.000000, 324.000000, 128.000000
18805, 52.000000, 324.000000, 128.000000
18806, 56.000000, 324.000000, 128.000000
18807, 60.000000, 324.000000, 128.000000
18808, 64.000000, 324.000000, 128.000000
18809, 68.000000, 324.000000, 128.000000
18810, 72.000000, 324.000000, 128.000000
18811, 36.000000, 328.000000, 128.000000
18812, 40.000000, 328.000000, 128.000000
18813, 44.000000, 328.000000, 128.000000
18814, 48.000000, 328.000000, 128.000000
18815, 52.000000, 328.000000, 128.000000
18816, 56.000000, 328.000000, 128.000000
18817, 60.000000, 328.000000, 128.000000
18818, 64.000000, 328.000000, 128.000000
18819, 68.000000, 328.000000, 128.000000
18820, 72.000000, 328.000000, 128.000000
18821, 36.000000, 332.000000, 128.000000
18822, 40.000000, 332.000000, 128.000000
18823, 44.000000, 332.000000, 128.000000
18824, 48.000000, 332.000000, 128.000000
18825, 52.000000, 332.000000, 128.000000
18826, 56.000000, 332.000000, 128.000000
18827, 60.000000, 332.000000, 128.000000
18828, 64.000000, 332.000000, 128.000000
18829, 68.000000, 332.000000, 128.000000
18830, 72.000000, 332.000000, 128.000000
18831, 36.000000, 336.000000, 128.000000
18832, 40.000000, 336.000000, 128.000000
18833, 44.000000, 336.000000, 128.000000
18834, 48.000000, 336.000000, 128.000000
18835, 52.000000, 336.000000, 128.000000
18836, 56.000000, 336.000000, 128.000000
18837, 60.000000, 336.000000, 128.000000
18838, 64.000000, 336.000000, 128.000000
18839, 68.000000, 336.000000, 128.000000
18840, 72.000000, 336.000000, 128.000000
18841, 36.000000, 340.000000, 128.000000
18842, 40.000000, 340.000000, 128.000000
18843, 44.000000, 340.000000, 128.000000
18844, 48.000000, 340.000000, 128.000000
18845, 52.000000, 340.000000, 128.000000
18846, 56.000000, 340.000000, 128.000000
18847, 60.000000, 340.000000, 128.000000
18848, 64.000000, 340.000000, 128.000000
18849, 68.000000, 340.000000, 128.000000
18850, 72.000000, 340.000000, 128.000000
18851, 36.000000, 344.000000, 128.000000
18852, 40.000000, 344.000000, 128.000000
18853, 44.000000, 344.000000, 128.000000
18854, 48.000000, 344.000000, 128.000000
18855, 52.000000, 344.000000, 128.000000
18856, 56.000000, 344.000000, 128.000000
18857, 60.000000, 344.000000, 128.000000
18858, 64.000000, 344.000000, 128.000000
18859, 68.000000, 344.000000, 128.000000
18860, 72.000000, 344.000000, 128.000000
18861, 36.000000, 348.000000, 128.000000
18862, 40.000000, 348.000000, 128.000000
18863, 44.000000, 348.000000, 128.000000
18864, 48.000000, 348.000000, 128.000000
18865, 52.000000, 348.000000, 128.000000
18866, 56.000000, 348.000000, 128.000000
18867, 60.000000, 348.000000, 128.000000
18868, 64.000000, 348.000000, 128.000000
18869, 68.000000, 348.000000, 128.000000
18870, 72.000000, 348.000000, 128.000000
18871, 36.000000, 352.000000, 128.000000
18872, 40.000000, 352.000000, 128.000000
18873, 44.000000, 352.000000, 128.000000
18874, 48.000000, 352.000000, 128.000000
18875, 52.000000, 352.000000, 128.000000
18876, 56.000000, 352.000000, 128.000000
18877, 60.000000, 352.000000, 128.000000
18878, 64.000000, 352.000000, 128.000000
18879, 68.000000, 352.000000, 128.000000
18880, 72.000000, 352.000000, 128.000000
18881, 36.000000, 356.000000, 128.000000
18882, 40.000000, 356.000000, 128.000000
18883, 44.000000, 356.000000, 128.000000
18884, 48.000000, 356.000000, 128.000000
18885, 52.000000, 356.000000, 128.000000
18886, 56.000000, 356.000000, 128.000000
18887, 60.000000, 356.000000, 128.000000
18888, 64.000000, 356.000000, 128.000000
18889, 68.000000, 356.000000, 128.000000
18890, 72.000000, 356.000000, 128.000000
18891, 36.000000, 360.000000, 128.000000
18892, 40.000000, 360.000000, 128.000000
18893, 44.000000, 360.000000, 128.000000
18894, 48.000000, 360.000000, 128.000000
18895, 52.000000, 360.000000, 128.000000
18896, 56.000000, 360.000000, 128.000000
18897, 60.000000, 360.000000, 128.000000
18898, 64.000000, 360.000000, 128.000000
18899, 68.000000, 360.000000, 128.000000
18900, 72.000000, 360.000000, 128.000000
18901, 36.000000, 364.000000, 128.000000
18902, 40.000000, 364.000000, 128.000000
18903, 44.000000, 364.000000, 128.000000
18904, 48.000000, 364.000000, 128.000000
18905, 52.000000, 364.000000, 128.000000
18906, 56.000000, 364.000000, 128.000000
18907, 60.000000, 364.000000, 128.000000
18908, 64.000000, 364.000000, 128.000000
18909, 68.000000, 364.000000, 128.000000
18910, 72.000000, 364.000000, 128.000000
18911, 36.000000, 368.000000, 128.000000
18912, 40.000000, 368.000000, 128.000000
18913, 44.000000, 368.000000, 128.000000
18914, 48.000000, 368.000000, 128.000000
18915, 52.000000, 368.000000, 128.000000
18916, 56.000000, 368.000000, 128.000000
18917, 60.000000, 368.000000, 128.000000
18918, 64.000000, 368.000000, 128.000000
18919, 68.000000, 368.000000, 128.000000
18920, 72.000000, 368.000000, 128.000000
18921, 36.000000, 372.000000, 128.000000
18922, 40.000000, 372.000000, 128.000000
18923, 44.000000, 372.000000, 128.000000
18924, 48.000000, 372.000000, 128.000000
18925, 52.000000, 372.000000, 128.000000
18926, 56.000000, 372.000000, 128.000000
18927, 60.000000, 372.000000, 128.000000
18928, 64.000000, 372.000000, 128.000000
18929, 68.000000, 372.000000, 128.000000
18930, 72.000000, 372.000000, 128.000000
18931, 36.000000, 376.000000, 128.000000
18932, 40.000000, 376.000000, 128.000000
18933, 44.000000, 376.000000, 128.000000
18934, 48.000000, 376.000000, 128.000000
18935, 52.000000, 376.000000, 128.000000
18936, 56.000000, 376.000000, 128.000000
18937, 60.000000, 376.000000, 128.000000
18938, 64.000000, 376.000000, 128.000000
18939, 68.000000, 376.000000, 128.000000
18940, 72.000000, 376.000000, 128.000000
18941, 36.000000, 380.000000, 128.000000
18942, 40.000000, 380.000000, 128.000000
18943, 44.000000, 380.000000, 128.000000
18944, 48.000000, 380.000000, 128.000000
18945, 52.000000, 380.000000, 128.000000
18946, 56.000000, 380.000000, 128.000000
18947, 60.000000, 380.000000, 128.000000
18948, 64.000000, 380.000000, 128.000000
18949, 68.000000, 380.000000, 128.000000
18950, 72.000000, 380.000000, 128.000000
18951, 36.000000, 384.000000, 128.000000
18952, 40.000000, 384.000000, 128.000000
18953, 44.000000, 384.000000, 128.000000
18954, 48.000000, 384.000000, 128.000000
18955, 52.000000, 384.000000, 128.000000
18956, 56.000000, 384.000000, 128.000000
18957, 60.000000, 384.000000, 128.000000
18958, 64.000000, 384.000000, 128.000000
18959, 68.000000, 384.000000, 128.000000
18960, 72.000000, 384.000000, 128.000000
18961, 36.000000, 388.000000, 128.000000
18962, 40.000000, 388.000000, 128.000000
18963, 44.000000, 388.000000, 128.000000
18964, 48.000000, 388.000000, 128.000000
18965, 52.000000, 388.000000, 128.000000
18966, 56.000000, 388.000000, 128.000000
18967, 60.000000, 388.000000, 128.000000
18968, 64.000000, 388.000000, 128.000000
18969, 68.000000, 388.000000, 128.000000
18970, 72.000000, 388.000000, 128.000000
18971, 36.000000, 392.000000, 128.000000
18972, 40.000000, 392.000000, 128.000000
18973, 44.000000, 392.000000, 128.000000
18974, 48.000000, 392.000000, 128.000000
18975, 52.000000, 392.000000, 128.000000
18976, 56.000000, 392.000000, 128.000000
18977, 60.000000, 392.000000, 128.000000
18978, 64.000000, 392.000000, 128.000000
18979, 68.000000, 392.000000, 128.000000
18980, 72.000000, 392.000000, 128.000000
18981, 36.000000, 396.000000, 128.000000
18982, 40.000000, 396.000000, 128.000000
18983, 44.000000, 396.000000, 128.000000
18984, 48.000000, 396.000000, 128.000000
18985, 52.000000, 396.000000, 128.000000
18986, 56.000000, 396.000000, 128.000000
18987, 60.000000, 396.000000, 128.000000
18988, 64.000000, 396.000000, 128.000000
18989, 68.000000, 396.000000, 128.000000
18990, 72.000000, 396.000000, 128.000000
18991, 36.000000, 400.000000, 128.000000
18992, 40.000000, 400.000000, 128.000000
18993, 44.000000, 400.000000, 128.000000
18994, 48.000000, 400.000000, 128.000000
18995, 52.000000, 400.000000, 128.000000
18996, 56.000000, 400.000000, 128.000000
18997, 60.000000, 400.000000, 128.000000
18998, 64.000000, 400.000000, 128.000000
18999, 68.000000, 400.000000, 128.000000
19000, 72.000000, 400.000000, 128.000000
19001, 36.000000, 404.000000, 128.000000
19002, 40.000000, 404.000000, 128.000000
19003, 44.000000, 404.000000, 128.000000
19004, 48.000000, 404.000000, 128.000000
19005, 52.000000, 404.000000, 128.000000
19006, 56.000000, 404.000000, 128.000000
19007, 60.000000, 404.000000, 128.000000
19008, 64.000000, 404.000000, 128.000000
19009, 68.000000, 404.000000, 128.000000
19010, 72.000000, 404.000000, 128.000000
19011, 36.000000, 408.000000, 128.000000
19012, 40.000000, 408.000000, 128.000000
19013, 44.000000, 408.000000, 128.000000
19014, 48.000000, 408.000000, 128.000000
19015, 52.000000, 408.000000, 128.000000
19016, 56.000000, 408.000000, 128.000000
19017, 60.000000, 408.000000, 128.000000
19018, 64.000000, 408.000000, 128.000000
19019, 68.000000, 408.000000, 128.000000
19020, 72.000000, 408.000000, 128.000000
19021, 36.000000, 412.000000, 128.000000
19022, 40.000000, 412.000000, 128.000000
19023, 44.000000, 412.000000, 128.000000
19024, 48.000000, 412.000000, 128.000000
19025, 52.000000, 412.000000, 128.000000
19026, 56.000000, 412.000000, 128.000000
19027, 60.000000, 412.000000, 128.000000
19028, 64.000000, 412.000000, 128.000000
19029, 68.000000, 412.000000, 128.000000
19030, 72.000000, 412.000000, 128.000000
19031, 36.000000, 416.000000, 128.000000
19032, 40.000000, 416.000000, 128.000000
19033, 44.000000, 416.000000, 128.000000
19034, 48.000000, 416.000000, 128.000000
19035, 52.000000, 416.000000, 128.000000
19036, 56.000000, 416.000000, 128.000000
19037, 60.000000, 416.000000, 128.000000
19038, 64.000000, 416.000000, 128.000000
19039, 68.000000, 416.000000, 128.000000
19040, 72.000000, 416.000000, 128.000000
19041, 36.000000, 420.000000, 128.000000
19042, 40.000000, 420.000000, 128.000000
19043, 44.000000, 420.000000, 128.000000
19044, 48.000000, 420.000000, 128.000000
19045, 52.000000, 420.000000, 128.000000
19046, 56.000000, 420.000000, 128.000000
19047, 60.000000, 420.000000, 128.000000
19048, 64.000000, 420.000000, 128.000000
19049, 68.000000, 420.000000, 128.000000
19050, 72.000000, 420.000000, 128.000000
19051, 36.000000, 424.000000, 128.000000
19052, 40.000000, 424.000000, 128.000000
19053, 44.000000, 424.000000, 128.000000
19054, 48.000000, 424.000000, 128.000000
19055, 52.000000, 424.000000, 128.000000
19056, 56.000000, 424.000000, 128.000000
19057, 60.000000, 424.000000, 128.000000
19058, 64.000000, 424.000000, 128.000000
19059, 68.000000, 424.000000, 128.000000
19060, 72.000000, 424.000000, 128.000000
19061, 36.000000, 428.000000, 128.000000
19062, 40.000000, 428.000000, 128.000000
19063, 44.000000, 428.000000, 128.000000
19064, 48.000000, 428.000000, 128.000000
19065, 52.000000, 428.000000, 128.000000
19066, 56.000000, 428.000000, 128.000000
19067, 60.000000, 428.000000, 128.000000
19068, 64.000000, 428.000000, 128.000000
19069, 68.000000, 428.000000, 128.000000
19070, 72.000000, 428.000000, 128.000000
19071, 36.000000, 432.000000, 128.000000
19072, 40.000000, 432.000000, 128.000000
19073, 44.000000, 432.000000, 128.000000
19074, 48.000000, 432.000000, 128.000000
19075, 52.000000, 432.000000, 128.000000
19076, 56.000000, 432.000000, 128.000000
19077, 60.000000, 432.000000, 128.000000
19078, 64.000000, 432.000000, 128.000000
19079, 68.000000, 432.000000, 128.000000
19080, 72.000000, 432.000000, 128.000000
19081, 36.000000, 436.000000, 128.000000
19082, 40.000000, 436.000000, 128.000000
19083, 44.000000, 436.000000, 128.000000
19084, 48.000000, 436.000000, 128.000000
19085, 52.000000, 436.000000, 128.000000
19086, 56.000000, 436.000000, 128.000000
19087, 60.000000, 436.000000, 128.000000
19088, 64.000000, 436.000000, 128.000000
19089, 68.000000, 436.000000, 128.000000
19090, 72.000000, 436.000000, 128.000000
19091, 36.000000, 440.000000, 128.000000
19092, 40.000000, 440.000000, 128.000000
19093, 44.000000, 440.000000, 128.000000
19094, 48.000000, 440.000000, 128.000000
19095, 52.000000, 440.000000, 128.000000
19096, 56.000000, 440.000000, 128.000000
19097, 60.000000, 440.000000, 128.000000
19098, 64.000000, 440.000000, 128.000000
19099, 68.000000, 440.000000, 128.000000
19100, 72.000000, 440.000000, 128.000000
19101, 36.000000, 444.000000, 128.000000
19102, 40.000000, 444.000000, 128.000000
19103, 44.000000, 444.000000, 128.000000
19104, 48.000000, 444.000000, 128.000000
19105, 52.000000, 444.000000, 128.000000
19106, 56.000000, 444.000000, 128.000000
19107, 60.000000, 444.000000, 128.000000
19108, 64.000000, 444.000000, 128.000000
19109, 68.000000, 444.000000, 128.000000
19110, 72.000000, 444.000000, 128.000000
19111, 36.000000, 448.000000, 128.000000
19112, 40.000000, 448.000000, 128.000000
19113, 44.000000, 448.000000, 128.000000
19114, 48.000000, 448.000000, 128.000000
19115, 52.000000, 448.000000, 128.000000
19116, 56.000000, 448.000000, 128.000000
19117, 60.000000, 448.000000, 128.000000
19118, 64.000000, 448.000000, 128.000000
19119, 68.000000, 448.000000, 128.000000
19120, 72.000000, 448.000000, 128.000000
19121, 36.000000, 452.000000, 128.000000
19122, 40.000000, 452.000000, 128.000000
19123, 44.000000, 452.000000, 128.000000
19124, 48.000000, 452.000000, 128.000000
19125, 52.000000, 452.000000, 128.000000
19126, 56.000000, 452.000000, 128.000000
19127, 60.000000, 452.000000, 128.000000
19128, 64.000000, 452.000000, 128.000000
19129, 68.000000, 452.000000, 128.000000
19130, 72.000000, 452.000000, 128.000000
19131, 36.000000, 456.000000, 128.000000
19132, 40.000000, 456.000000, 128.000000
19133, 44.000000, 456.000000, 128.000000
19134, 48.000000, 456.000000, 128.000000
19135, 52.000000, 456.000000, 128.000000
19136, 56.000000, 456.000000, 128.000000
19137, 60.000000, 456.000000, 128.000000
19138, 64.000000, 456.000000, 128.000000
19139, 68.000000, 456.000000, 128.000000
19140, 72.000000, 456.000000, 128.000000
19141, 36.000000, 228.000000, 132.000000
19142, 40.000000, 228.000000, 132.000000
19143, 44.000000, 228.000000, 132.000000
19144, 48.000000, 228.000000, 132.000000
19145, 52.000000, 228.000000, 132.000000
19146, 56.000000, 228.000000, 132.000000
19147, 60.000000, 228.000000, 132.000000
19148, 64.000000, 228.000000, 132.000000
19149, 68.000000, 228.000000, 132.000000
19150, 72.000000, 228.000000, 132.000000
19151, 36.000000, 232.000000, 132.000000
19152, 40.000000, 232.000000, 132.000000
19153, 44.000000, 232.000000, 132.000000
19154, 48.000000, 232.000000, 132.000000
19155, 52.000000, 232.000000, 132.000000
19156, 56.000000, 232.000000, 132.000000
19157, 60.000000, 232.000000, 132.000000
19158, 64.000000, 232.000000, 132.000000
19159, 68.000000, 232.000000, 132.000000
19160, 72.000000, 232.000000, 132.000000
19161, 36.000000, 236.000000, 132.000000
19162, 40.000000, 236.000000, 132.000000
19163, 44.000000, 236.000000, 132.000000
19164, 48.000000, 236.000000, 132.000000
19165, 52.000000, 236.000000, 132.000000
19166, 56.000000, 236.000000, 132.000000
19167, 60.000000, 236.000000, 132.000000
19168, 64.000000, 236.000000, 132.000000
19169, 68.000000, 236.000000, 132.000000
19170, 72.000000, 236.000000, 132.000000
19171, 36.000000, 240.000000, 132.000000
19172, 40.000000, 240.000000, 132.000000
19173, 44.000000, 240.000000, 132.000000
19174, 48.000000, 240.000000, 132.000000
19175, 52.000000, 240.000000, 132.000000
19176, 56.000000, 240.000000, 132.000000
19177, 60.000000, 240.000000, 132.000000
19178, 64.000000, 240.000000, 132.000000
19179, 68.000000, 240.000000, 132.000000
19180, 72.000000, 240.000000, 132.000000
19181, 36.000000, 244.000000, 132.000000
19182, 40.000000, 244.000000, 132.000000
19183, 44.000000, 244.000000, 132.000000
19184, 48.000000, 244.000000, 132.000000
19185, 52.000000, 244.000000, 132.000000
19186, 56.000000, 244.000000, 132.000000
19187, 60.000000, 244.000000, 132.000000
19188, 64.000000, 244.000000, 132.000000
19189, 68.000000, 244.000000, 132.000000
19190, 72.000000, 244.000000, 132.000000
19191, 36.000000, 248.000000, 132.000000
19192, 40.000000, 248.000000, 132.000000
19193, 44.000000, 248.000000, 132.000000
19194, 48.000000, 248.000000, 132.000000
19195, 52.000000, 248.000000, 132.000000
19196, 56.000000, 248.000000, 132.000000
19197, 60.000000, 248.000000, 132.000000
19198, 64.000000, 248.000000, 132.000000
19199, 68.000000, 248.000000, 132.000000
19200, 72.000000, 248.000000, 132.000000
19201, 36.000000, 252.000000, 132.000000
19202, 40.000000, 252.000000, 132.000000
19203, 44.000000, 252.000000, 132.000000
19204, 48.000000, 252.000000, 132.000000
19205, 52.000000, 252.000000, 132.000000
19206, 56.000000, 252.000000, 132.000000
19207, 60.000000, 252.000000, 132.000000
19208, 64.000000, 252.000000, 132.000000
19209, 68.000000, 252.000000, 132.000000
19210, 72.000000, 252.000000, 132.000000
19211, 36.000000, 256.000000, 132.000000
19212, 40.000000, 256.000000, 132.000000
19213, 44.000000, 256.000000, 132.000000
19214, 48.000000, 256.000000, 132.000000
19215, 52.000000, 256.000000, 132.000000
19216, 56.000000, 256.000000, 132.000000
19217, 60.000000, 256.000000, 132.000000
19218, 64.000000, 256.000000, 132.000000
19219, 68.000000, 256.000000, 132.000000
19220, 72.000000, 256.000000, 132.000000
19221, 36.000000, 260.000000, 132.000000
19222, 40.000000, 260.000000, 132.000000
19223, 44.000000, 260.000000, 132.000000
19224, 48.000000, 260.000000, 132.000000
19225, 52.000000, 260.000000, 132.000000
19226, 56.000000, 260.000000, 132.000000
19227, 60.000000, 260.000000, 132.000000
19228, 64.000000, 260.000000, 132.000000
19229, 68.000000, 260.000000, 132.000000
19230, 72.000000, 260.000000, 132.000000
19231, 36.000000, 264.000000, 132.000000
19232, 40.000000, 264.000000, 132.000000
19233, 44.000000, 264.000000, 132.000000
19234, 48.000000, 264.000000, 132.000000
19235, 52.000000, 264.000000, 132.000000
19236, 56.000000, 264.000000, 132.000000
19237, 60.000000, 264.000000, 132.000000
19238, 64.000000, 264.000000, 132.000000
19239, 68.000000, 264.000000, 132.000000
19240, 72.000000, 264.000000, 132.000000
19241, 36.000000, 268.000000, 132.000000
19242, 40.000000, 268.000000, 132.000000
19243, 44.000000, 268.000000, 132.000000
19244, 48.000000, 268.000000, 132.000000
19245, 52.000000, 268.000000, 132.000000
19246, 56.000000, 268.000000, 132.000000
19247, 60.000000, 268.000000, 132.000000
19248, 64.000000, 268.000000, 132.000000
19249, 68.000000, 268.000000, 132.000000
19250, 72.000000, 268.000000, 132.000000
19251, 36.000000, 272.000000, 132.000000
19252, 40.000000, 272.000000, 132.000000
19253, 44.000000, 272.000000, 132.000000
19254, 48.000000, 272.000000, 132.000000
19255, 52.000000, 272.000000, 132.000000
19256, 56.000000, 272.000000, 132.000000
19257, 60.000000, 272.000000, 132.000000
19258, 64.000000, 272.000000, 132.000000
19259, 68.000000, 272.000000, 132.000000
19260, 72.000000, 272.000000, 132.000000
19261, 36.000000, 276.000000, 132.000000
19262, 40.000000, 276.000000, 132.000000
19263, 44.000000, 276.000000, 132.000000
19264, 48.000000, 276.000000, 132.000000
19265, 52.000000, 276.000000, 132.000000
19266, 56.000000, 276.000000, 132.000000
19267, 60.000000, 276.000000, 132.000000
19268, 64.000000, 276.000000, 132.000000
19269, 68.000000, 276.000000, 132.000000
19270, 72.000000, 276.000000, 132.000000
19271, 36.000000, 280.000000, 132.000000
19272, 40.000000, 280.000000, 132.000000
19273, 44.000000, 280.000000, 132.000000
19274, 48.000000, 280.000000, 132.000000
19275, 52.000000, 280.000000, 132.000000
19276, 56.000000, 280.000000, 132.000000
19277, 60.000000, 280.000000, 132.000000
19278, 64.000000, 280.000000, 132.000000
19279, 68.000000, 280.000000, 132.000000
19280, 72.000000, 280.000000, 132.000000
19281, 36.000000, 284.000000, 132.000000
19282, 40.000000, 284.000000, 132.000000
19283, 44.000000, 284.000000, 132.000000
19284, 48.000000, 284.000000, 132.000000
19285, 52.000000, 284.000000, 132.000000
19286, 56.000000, 284.000000, 132.000000
19287, 60.000000, 284.000000, 132.000000
19288, 64.000000, 284.000000, 132.000000
19289, 68.000000, 284.000000, 132.000000
19290, 72.000000, 284.000000, 132.000000
19291, 36.000000, 288.000000, 132.000000
19292, 40.000000, 288.000000, 132.000000
19293, 44.000000, 288.000000, 132.000000
19294, 48.000000, 288.000000, 132.000000
19295, 52.000000, 288.000000, 132.000000
19296, 56.000000, 288.000000, 132.000000
19297, 60.000000, 288.000000, 132.000000
19298, 64.000000, 288.000000, 132.000000
19299, 68.000000, 288.000000, 132.000000
19300, 72.000000, 288.000000, 132.000000
19301, 36.000000, 292.000000, 132.000000
19302, 40.000000, 292.000000, 132.000000
19303, 44.000000, 292.000000, 132.000000
19304, 48.000000, 292.000000, 132.000000
19305, 52.000000, 292.000000, 132.000000
19306, 56.000000, 292.000000, 132.000000
19307, 60.000000, 292.000000, 132.000000
19308, 64.000000, 292.000000, 132.000000
19309, 68.000000, 292.000000, 132.000000
19310, 72.000000, 292.000000, 132.000000
19311, 36.000000, 296.000000, 132.000000
19312, 40.000000, 296.000000, 132.000000
19313, 44.000000, 296.000000, 132.000000
19314, 48.000000, 296.000000, 132.000000
19315, 52.000000, 296.000000, 132.000000
19316, 56.000000, 296.000000, 132.000000
19317, 60.000000, 296.000000, 132.000000
19318, 64.000000, 296.000000, 132.000000
19319, 68.000000, 296.000000, 132.000000
19320, 72.000000, 296.000000, 132.000000
19321, 36.000000, 300.000000, 132.000000
19322, 40.000000, 300.000000, 132.000000
19323, 44.000000, 300.000000, 132.000000
19324, 48.000000, 300.000000, 132.000000
19325, 52.000000, 300.000000, 132.000000
19326, 56.000000, 300.000000, 132.000000
19327, 60.000000, 300.000000, 132.000000
19328, 64.000000, 300.000000, 132.000000
19329, 68.000000, 300.000000, 132.000000
19330, 72.000000, 300.000000, 132.000000
19331, 36.000000, 304.000000, 132.000000
19332, 40.000000, 304.000000, 132.000000
19333, 44.000000, 304.000000, 132.000000
19334, 48.000000, 304.000000, 132.000000
19335, 52.000000, 304.000000, 132.000000
19336, 56.000000, 304.000000, 132.000000
19337, 60.000000, 304.000000, 132.000000
19338, 64.000000, 304.000000, 132.000000
19339, 68.000000, 304.000000, 132.000000
19340, 72.000000, 304.000000, 132.000000
19341, 36.000000, 308.000000, 132.000000
19342, 40.000000, 308.000000, 132.000000
19343, 44.000000, 308.000000, 132.000000
19344, 48.000000, 308.000000, 132.000000
19345, 52.000000, 308.000000, 132.000000
19346, 56.000000, 308.000000, 132.000000
19347, 60.000000, 308.000000, 132.000000
19348, 64.000000, 308.000000, 132.000000
19349, 68.000000, 308.000000, 132.000000
19350, 72.000000, 308.000000, 132.000000
19351, 36.000000, 312.000000, 132.000000
19352, 40.000000, 312.000000, 132.000000
19353, 44.000000, 312.000000, 132.000000
19354, 48.000000, 312.000000, 132.000000
19355, 52.000000, 312.000000, 132.000000
19356, 56.000000, 312.000000, 132.000000
19357, 60.000000, 312.000000, 132.000000
19358, 64.000000, 312.000000, 132.000000
19359, 68.000000, 312.000000, 132.000000
19360, 72.000000, 312.000000, 132.000000
19361, 36.000000, 316.000000, 132.000000
19362, 40.000000, 316.000000, 132.000000
19363, 44.000000, 316.000000, 132.000000
19364, 48.000000, 316.000000, 132.000000
19365, 52.000000, 316.000000, 132.000000
19366, 56.000000, 316.000000, 132.000000
19367, 60.000000, 316.000000, 132.000000
19368, 64.000000, 316.000000, 132.000000
19369, 68.000000, 316.000000, 132.000000
19370, 72.000000, 316.000000, 132.000000
19371, 36.000000, 320.000000, 132.000000
19372, 40.000000, 320.000000, 132.000000
19373, 44.000000, 320.000000, 132.000000
19374, 48.000000, 320.000000, 132.000000
19375, 52.000000, 320.000000, 132.000000
19376, 56.000000, 320.000000, 132.000000
19377, 60.000000, 320.000000, 132.000000
19378, 64.000000, 320.000000, 132.000000
19379, 68.000000, 320.000000, 132.000000
19380, 72.000000, 320.000000, 132.000000
19381, 36.000000, 324.000000, 132.000000
19382, 40.000000, 324.000000, 132.000000
19383, 44.000000, 324.000000, 132.000000
19384, 48.000000, 324.000000, 132.000000
19385, 52.000000, 324.000000, 132.000000
19386, 56.000000, 324.000000, 132.000000
19387, 60.000000, 324.000000, 132.000000
19388, 64.000000, 324.000000, 132.000000
19389, 68.000000, 324.000000, 132.000000
19390, 72.000000, 324.000000, 132.000000
19391, 36.000000, 328.000000, 132.000000
19392, 40.000000, 328.000000, 132.000000
19393, 44.000000, 328.000000, 132.000000
19394, 48.000000, 328.000000, 132.000000
19395, 52.000000, 328.000000, 132.000000
19396, 56.000000, 328.000000, 132.000000
19397, 60.000000, 328.000000, 132.000000
19398, 64.000000, 328.000000, 132.000000
19399, 68.000000, 328.000000, 132.000000
19400, 72.000000, 328.000000, 132.000000
19401, 36.000000, 332.000000, 132.000000
19402, 40.000000, 332.000000, 132.000000
19403, 44.000000, 332.000000, 132.000000
19404, 48.000000, 332.000000, 132.000000
19405, 52.000000, 332.000000, 132.000000
19406, 56.000000, 332.000000, 132.000000
19407, 60.000000, 332.000000, 132.000000
19408, 64.000000, 332.000000, 132.000000
19409, 68.000000, 332.000000, 132.000000
19410, 72.000000, 332.000000, 132.000000
19411, 36.000000, 336.000000, 132.000000
19412, 40.000000, 336.000000, 132.000000
19413, 44.000000, 336.000000, 132.000000
19414, 48.000000, 336.000000, 132.000000
19415, 52.000000, 336.000000, 132.000000
19416, 56.000000, 336.000000, 132.000000
19417, 60.000000, 336.000000, 132.000000
19418, 64.000000, 336.000000, 132.000000
19419, 68.000000, 336.000000, 132.000000
19420, 72.000000, 336.000000, 132.000000
19421, 36.000000, 340.000000, 132.000000
19422, 40.000000, 340.000000, 132.000000
19423, 44.000000, 340.000000, 132.000000
19424, 48.000000, 340.000000, 132.000000
19425, 52.000000, 340.000000, 132.000000
19426, 56.000000, 340.000000, 132.000000
19427, 60.000000, 340.000000, 132.000000
19428, 64.000000, 340.000000, 132.000000
19429, 68.000000, 340.000000, 132.000000
19430, 72.000000, 340.000000, 132.000000
19431, 36.000000, 344.000000, 132.000000
19432, 40.000000, 344.000000, 132.000000
19433, 44.000000, 344.000000, 132.000000
19434, 48.000000, 344.000000, 132.000000
19435, 52.000000, 344.000000, 132.000000
19436, 56.000000, 344.000000, 132.000000
19437, 60.000000, 344.000000, 132.000000
19438, 64.000000, 344.000000, 132.000000
19439, 68.000000, 344.000000, 132.000000
19440, 72.000000, 344.000000, 132.000000
19441, 36.000000, 348.000000, 132.000000
19442, 40.000000, 348.000000, 132.000000
19443, 44.000000, 348.000000, 132.000000
19444, 48.000000, 348.000000, 132.000000
19445, 52.000000, 348.000000, 132.000000
19446, 56.000000, 348.000000, 132.000000
19447, 60.000000, 348.000000, 132.000000
19448, 64.000000, 348.000000, 132.000000
19449, 68.000000, 348.000000, 132.000000
19450, 72.000000, 348.000000, 132.000000
19451, 36.000000, 352.000000, 132.000000
19452, 40.000000, 352.000000, 132.000000
19453, 44.000000, 352.000000, 132.000000
19454, 48.000000, 352.000000, 132.000000
19455, 52.000000, 352.000000, 132.000000
19456, 56.000000, 352.000000, 132.000000
19457, 60.000000, 352.000000, 132.000000
19458, 64.000000, 352.000000, 132.000000
19459, 68.000000, 352.000000, 132.000000
19460, 72.000000, 352.000000, 132.000000
19461, 36.000000, 356.000000, 132.000000
19462, 40.000000, 356.000000, 132.000000
19463, 44.000000, 356.000000, 132.000000
19464, 48.000000, 356.000000, 132.000000
19465, 52.000000, 356.000000, 132.000000
19466, 56.000000, 356.000000, 132.000000
19467, 60.000000, 356.000000, 132.000000
19468, 64.000000, 356.000000, 132.000000
19469, 68.000000, 356.000000, 132.000000
19470, 72.000000, 356.000000, 132.000000
19471, 36.000000, 360.000000, 132.000000
19472, 40.000000, 360.000000, 132.000000
19473, 44.000000, 360.000000, 132.000000
19474, 48.000000, 360.000000, 132.000000
19475, 52.000000, 360.000000, 132.000000
19476, 56.000000, 360.000000, 132.000000
19477, 60.000000, 360.000000, 132.000000
19478, 64.000000, 360.000000, 132.000000
19479, 68.000000, 360.000000, 132.000000
19480, 72.000000, 360.000000, 132.000000
19481, 36.000000, 364.000000, 132.000000
19482, 40.000000, 364.000000, 132.000000
19483, 44.000000, 364.000000, 132.000000
19484, 48.000000, 364.000000, 132.000000
19485, 52.000000, 364.000000, 132.000000
19486, 56.000000, 364.000000, 132.000000
19487, 60.000000, 364.000000, 132.000000
19488, 64.000000, 364.000000, 132.000000
19489, 68.000000, 364.000000, 132.000000
19490, 72.000000, 364.000000, 132.000000
19491, 36.000000, 368.000000, 132.000000
19492, 40.000000, 368.000000, 132.000000
19493, 44.000000, 368.000000, 132.000000
19494, 48.000000, 368.000000, 132.000000
19495, 52.000000, 368.000000, 132.000000
19496, 56.000000, 368.000000, 132.000000
19497, 60.000000, 368.000000, 132.000000
19498, 64.000000, 368.000000, 132.000000
19499, 68.000000, 368.000000, 132.000000
19500, 72.000000, 368.000000, 132.000000
19501, 36.000000, 372.000000, 132.000000
19502, 40.000000, 372.000000, 132.000000
19503, 44.000000, 372.000000, 132.000000
19504, 48.000000, 372.000000, 132.000000
19505, 52.000000, 372.000000, 132.000000
19506, 56.000000, 372.000000, 132.000000
19507, 60.000000, 372.000000, 132.000000
19508, 64.000000, 372.000000, 132.000000
19509, 68.000000, 372.000000, 132.000000
19510, 72.000000, 372.000000, 132.000000
19511, 36.000000, 376.000000, 132.000000
19512, 40.000000, 376.000000, 132.000000
19513, 44.000000, 376.000000, 132.000000
19514, 48.000000, 376.000000, 132.000000
19515, 52.000000, 376.000000, 132.000000
19516, 56.000000, 376.000000, 132.000000
19517, 60.000000, 376.000000, 132.000000
19518, 64.000000, 376.000000, 132.000000
19519, 68.000000, 376.000000, 132.000000
19520, 72.000000, 376.000000, 132.000000
19521, 36.000000, 380.000000, 132.000000
19522, 40.000000, 380.000000, 132.000000
19523, 44.000000, 380.000000, 132.000000
19524, 48.000000, 380.000000, 132.000000
19525, 52.000000, 380.000000, 132.000000
19526, 56.000000, 380.000000, 132.000000
19527, 60.000000, 380.000000, 132.000000
19528, 64.000000, 380.000000, 132.000000
19529, 68.000000, 380.000000, 132.000000
19530, 72.000000, 380.000000, 132.000000
19531, 36.000000, 384.000000, 132.000000
19532, 40.000000, 384.000000, 132.000000
19533, 44.000000, 384.000000, 132.000000
19534, 48.000000, 384.000000, 132.000000
19535, 52.000000, 384.000000, 132.000000
19536, 56.000000, 384.000000, 132.000000
19537, 60.000000, 384.000000, 132.000000
19538, 64.000000, 384.000000, 132.000000
19539, 68.000000, 384.000000, 132.000000
19540, 72.000000, 384.000000, 132.000000
19541, 36.000000, 388.000000, 132.000000
19542, 40.000000, 388.000000, 132.000000
19543, 44.000000, 388.000000, 132.000000
19544, 48.000000, 388.000000, 132.000000
19545, 52.000000, 388.000000, 132.000000
19546, 56.000000, 388.000000, 132.000000
19547, 60.000000, 388.000000, 132.000000
19548, 64.000000, 388.000000, 132.000000
19549, 68.000000, 388.000000, 132.000000
19550, 72.000000, 388.000000, 132.000000
19551, 36.000000, 392.000000, 132.000000
19552, 40.000000, 392.000000, 132.000000
19553, 44.000000, 392.000000, 132.000000
19554, 48.000000, 392.000000, 132.000000
19555, 52.000000, 392.000000, 132.000000
19556, 56.000000, 392.000000, 132.000000
19557, 60.000000, 392.000000, 132.000000
19558, 64.000000, 392.000000, 132.000000
19559, 68.000000, 392.000000, 132.000000
19560, 72.000000, 392.000000, 132.000000
19561, 36.000000, 396.000000, 132.000000
19562, 40.000000, 396.000000, 132.000000
19563, 44.000000, 396.000000, 132.000000
19564, 48.000000, 396.000000, 132.000000
19565, 52.000000, 396.000000, 132.000000
19566, 56.000000, 396.000000, 132.000000
19567, 60.000000, 396.000000, 132.000000
19568, 64.000000, 396.000000, 132.000000
19569, 68.000000, 396.000000, 132.000000
19570, 72.000000, 396.000000, 132.000000
19571, 36.000000, 400.000000, 132.000000
19572, 40.000000, 400.000000, 132.000000
19573, 44.000000, 400.000000, 132.000000
19574, 48.000000, 400.000000, 132.000000
19575, 52.000000, 400.000000, 132.000000
19576, 56.000000, 400.000000, 132.000000
19577, 60.000000, 400.000000, 132.000000
19578, 64.000000, 400.000000, 132.000000
19579, 68.000000, 400.000000, 132.000000
19580, 72.000000, 400.000000, 132.000000
19581, 36.000000, 404.000000, 132.000000
19582, 40.000000, 404.000000, 132.000000
19583, 44.000000, 404.000000, 132.000000
19584, 48.000000, 404.000000, 132.000000
19585, 52.000000, 404.000000, 132.000000
19586, 56.000000, 404.000000, 132.000000
19587, 60.000000, 404.000000, 132.000000
19588, 64.000000, 404.000000, 132.000000
19589, 68.000000, 404.000000, 132.000000
19590, 72.000000, 404.000000, 132.000000
19591, 36.000000, 408.000000, 132.000000
19592, 40.000000, 408.000000, 132.000000
19593, 44.000000, 408.000000, 132.000000
19594, 48.000000, 408.000000, 132.000000
19595, 52.000000, 408.000000, 132.000000
19596, 56.000000, 408.000000, 132.000000
19597, 60.000000, 408.000000, 132.000000
19598, 64.000000, 408.000000, 132.000000
19599, 68.000000, 408.000000, 132.000000
19600, 72.000000, 408.000000, 132.000000
19601, 36.000000, 412.000000, 132.000000
19602, 40.000000, 412.000000, 132.000000
19603, 44.000000, 412.000000, 132.000000
19604, 48.000000, 412.000000, 132.000000
19605, 52.000000, 412.000000, 132.000000
19606, 56.000000, 412.000000, 132.000000
19607, 60.000000, 412.000000, 132.000000
19608, 64.000000, 412.000000, 132.000000
19609, 68.000000, 412.000000, 132.000000
19610, 72.000000, 412.000000, 132.000000
19611, 36.000000, 416.000000, 132.000000
19612, 40.000000, 416.000000, 132.000000
19613, 44.000000, 416.000000, 132.000000
19614, 48.000000, 416.000000, 132.000000
19615, 52.000000, 416.000000, 132.000000
19616, 56.000000, 416.000000, 132.000000
19617, 60.000000, 416.000000, 132.000000
19618, 64.000000, 416.000000, 132.000000
19619, 68.000000, 416.000000, 132.000000
19620, 72.000000, 416.000000, 132.000000
19621, 36.000000, 420.000000, 132.000000
19622, 40.000000, 420.000000, 132.000000
19623, 44.000000, 420.000000, 132.000000
19624, 48.000000, 420.000000, 132.000000
19625, 52.000000, 420.000000, 132.000000
19626, 56.000000, 420.000000, 132.000000
19627, 60.000000, 420.000000, 132.000000
19628, 64.000000, 420.000000, 132.000000
19629, 68.000000, 420.000000, 132.000000
19630, 72.000000, 420.000000, 132.000000
19631, 36.000000, 424.000000, 132.000000
19632, 40.000000, 424.000000, 132.000000
19633, 44.000000, 424.000000, 132.000000
19634, 48.000000, 424.000000, 132.000000
19635, 52.000000, 424.000000, 132.000000
19636, 56.000000, 424.000000, 132.000000
19637, 60.000000, 424.000000, 132.000000
19638, 64.000000, 424.000000, 132.000000
19639, 68.000000, 424.000000, 132.000000
19640, 72.000000, 424.000000, 132.000000
19641, 36.000000, 428.000000, 132.000000
19642, 40.000000, 428.000000, 132.000000
19643, 44.000000, 428.000000, 132.000000
19644, 48.000000, 428.000000, 132.000000
19645, 52.000000, 428.000000, 132.000000
19646, 56.000000, 428.000000, 132.000000
19647, 60.000000, 428.000000, 132.000000
19648, 64.000000, 428.000000, 132.000000
19649, 68.000000, 428.000000, 132.000000
19650, 72.000000, 428.000000, 132.000000
19651, 36.000000, 432.000000, 132.000000
19652, 40.000000, 432.000000, 132.000000
19653, 44.000000, 432.000000, 132.000000
19654, 48.000000, 432.000000, 132.000000
19655, 52.000000, 432.000000, 132.000000
19656, 56.000000, 432.000000, 132.000000
19657, 60.000000, 432.000000, 132.000000
19658, 64.000000, 432.000000, 132.000000
19659, 68.000000, 432.000000, 132.000000
19660, 72.000000, 432.000000, 132.000000
19661, 36.000000, 436.000000, 132.000000
19662, 40.000000, 436.000000, 132.000000
19663, 44.000000, 436.000000, 132.000000
19664, 48.000000, 436.000000, 132.000000
19665, 52.000000, 436.000000, 132.000000
19666, 56.000000, 436.000000, 132.000000
19667, 60.000000, 436.000000, 132.000000
19668, 64.000000, 436.000000, 132.000000
19669, 68.000000, 436.000000, 132.000000
19670, 72.000000, 436.000000, 132.000000
19671, 36.000000, 440.000000, 132.000000
19672, 40.000000, 440.000000, 132.000000
19673, 44.000000, 440.000000, 132.000000
19674, 48.000000, 440.000000, 132.000000
19675, 52.000000, 440.000000, 132.000000
19676, 56.000000, 440.000000, 132.000000
19677, 60.000000, 440.000000, 132.000000
19678, 64.000000, 440.000000, 132.000000
19679, 68.000000, 440.000000, 132.000000
19680, 72.000000, 440.000000, 132.000000
19681, 36.000000, 444.000000, 132.000000
19682, 40.000000, 444.000000, 132.000000
19683, 44.000000, 444.000000, 132.000000
19684, 48.000000, 444.000000, 132.000000
19685, 52.000000, 444.000000, 132.000000
19686, 56.000000, 444.000000, 132.000000
19687, 60.000000, 444.000000, 132.000000
19688, 64.000000, 444.000000, 132.000000
19689, 68.000000, 444.000000, 132.000000
19690, 72.000000, 444.000000, 132.000000
19691, 36.000000, 448.000000, 132.000000
19692, 40.000000, 448.000000, 132.000000
19693, 44.000000, 448.000000, 132.000000
19694, 48.000000, 448.000000, 132.000000
19695, 52.000000, 448.000000, 132.000000
19696, 56.000000, 448.000000, 132.000000
19697, 60.000000, 448.000000, 132.000000
19698, 64.000000, 448.000000, 132.000000
19699, 68.000000, 448.000000, 132.000000
19700, 72.000000, 448.000000, 132.000000
19701, 36.000000, 452.000000, 132.000000
19702, 40.000000, 452.000000, 132.000000
19703, 44.000000, 452.000000, 132.000000
19704, 48.000000, 452.000000, 132.000000
19705, 52.000000, 452.000000, 132.000000
19706, 56.000000, 452.000000, 132.000000
19707, 60.000000, 452.000000, 132.000000
19708, 64.000000, 452.000000, 132.000000
19709, 68.000000, 452.000000, 132.000000
19710, 72.000000, 452.000000, 132.000000
19711, 36.000000, 456.000000, 132.000000
19712, 40.000000, 456.000000, 132.000000
19713, 44.000000, 456.000000, 132.000000
19714, 48.000000, 456.000000, 132.000000
19715, 52.000000, 456.000000, 132.000000
19716, 56.000000, 456.000000, 132.000000
19717, 60.000000, 456.000000, 132.000000
19718, 64.000000, 456.000000, 132.000000
19719, 68.000000, 456.000000, 132.000000
19720, 72.000000, 456.000000, 132.000000
19721, 36.000000, 228.000000, 136.000000
19722, 40.000000, 228.000000, 136.000000
19723, 44.000000, 228.000000, 136.000000
19724, 48.000000, 228.000000, 136.000000
19725, 52.000000, 228.000000, 136.000000
19726, 56.000000, 228.000000, 136.000000
19727, 60.000000, 228.000000, 136.000000
19728, 64.000000, 228.000000, 136.000000
19729, 68.000000, 228.000000, 136.000000
19730, 72.000000, 228.000000, 136.000000
19731, 36.000000, 232.000000, 136.000000
19732, 40.000000, 232.000000, 136.000000
19733, 44.000000, 232.000000, 136.000000
19734, 48.000000, 232.000000, 136.000000
19735, 52.000000, 232.000000, 136.000000
19736, 56.000000, 232.000000, 136.000000
19737, 60.000000, 232.000000, 136.000000
19738, 64.000000, 232.000000, 136.000000
19739, 68.000000, 232.000000, 136.000000
19740, 72.000000, 232.000000, 136.000000
19741, 36.000000, 236.000000, 136.000000
19742, 40.000000, 236.000000, 136.000000
19743, 44.000000, 236.000000, 136.000000
19744, 48.000000, 236.000000, 136.000000
19745, 52.000000, 236.000000, 136.000000
19746, 56.000000, 236.000000, 136.000000
19747, 60.000000, 236.000000, 136.000000
19748, 64.000000, 236.000000, 136.000000
19749, 68.000000, 236.000000, 136.000000
19750, 72.000000, 236.000000, 136.000000
19751, 36.000000, 240.000000, 136.000000
19752, 40.000000, 240.000000, 136.000000
19753, 44.000000, 240.000000, 136.000000
19754, 48.000000, 240.000000, 136.000000
19755, 52.000000, 240.000000, 136.000000
19756, 56.000000, 240.000000, 136.000000
19757, 60.000000, 240.000000, 136.000000
19758, 64.000000, 240.000000, 136.000000
19759, 68.000000, 240.000000, 136.000000
19760, 72.000000, 240.000000, 136.000000
19761, 36.000000, 244.000000, 136.000000
19762, 40.000000, 244.000000, 136.000000
19763, 44.000000, 244.000000, 136.000000
19764, 48.000000, 244.000000, 136.000000
19765, 52.000000, 244.000000, 136.000000
19766, 56.000000, 244.000000, 136.000000
19767, 60.000000, 244.000000, 136.000000
19768, 64.000000, 244.000000, 136.000000
19769, 68.000000, 244.000000, 136.000000
19770, 72.000000, 244.000000, 136.000000
19771, 36.000000, 248.000000, 136.000000
19772, 40.000000, 248.000000, 136.000000
19773, 44.000000, 248.000000, 136.000000
19774, 48.000000, 248.000000, 136.000000
19775, 52.000000, 248.000000, 136.000000
19776, 56.000000, 248.000000, 136.000000
19777, 60.000000, 248.000000, 136.000000
19778, 64.000000, 248.000000, 136.000000
19779, 68.000000, 248.000000, 136.000000
19780, 72.000000, 248.000000, 136.000000
19781, 36.000000, 252.000000, 136.000000
19782, 40.000000, 252.000000, 136.000000
19783, 44.000000, 252.000000, 136.000000
19784, 48.000000, 252.000000, 136.000000
19785, 52.000000, 252.000000, 136.000000
19786, 56.000000, 252.000000, 136.000000
19787, 60.000000, 252.000000, 136.000000
19788, 64.000000, 252.000000, 136.000000
19789, 68.000000, 252.000000, 136.000000
19790, 72.000000, 252.000000, 136.000000
19791, 36.000000, 256.000000, 136.000000
19792, 40.000000, 256.000000, 136.000000
19793, 44.000000, 256.000000, 136.000000
19794, 48.000000, 256.000000, 136.000000
19795, 52.000000, 256.000000, 136.000000
19796, 56.000000, 256.000000, 136.000000
19797, 60.000000, 256.000000, 136.000000
19798, 64.000000, 256.000000, 136.000000
19799, 68.000000, 256.000000, 136.000000
19800, 72.000000, 256.000000, 136.000000
19801, 36.000000, 260.000000, 136.000000
19802, 40.000000, 260.000000, 136.000000
19803, 44.000000, 260.000000, 136.000000
19804, 48.000000, 260.000000, 136.000000
19805, 52.000000, 260.000000, 136.000000
19806, 56.000000, 260.000000, 136.000000
19807, 60.000000, 260.000000, 136.000000
19808, 64.000000, 260.000000, 136.000000
19809, 68.000000, 260.000000, 136.000000
19810, 72.000000, 260.000000, 136.000000
19811, 36.000000, 264.000000, 136.000000
19812, 40.000000, 264.000000, 136.000000
19813, 44.000000, 264.000000, 136.000000
19814, 48.000000, 264.000000, 136.000000
19815, 52.000000, 264.000000, 136.000000
19816, 56.000000, 264.000000, 136.000000
19817, 60.000000, 264.000000, 136.000000
19818, 64.000000, 264.000000, 136.000000
19819, 68.000000, 264.000000, 136.000000
19820, 72.000000, 264.000000, 136.000000
19821, 36.000000, 268.000000, 136.000000
19822, 40.000000, 268.000000, 136.000000
19823, 44.000000, 268.000000, 136.000000
19824, 48.000000, 268.000000, 136.000000
19825, 52.000000, 268.000000, 136.000000
19826, 56.000000, 268.000000, 136.000000
19827, 60.000000, 268.000000, 136.000000
19828, 64.000000, 268.000000, 136.000000
19829, 68.000000, 268.000000, 136.000000
19830, 72.000000, 268.000000, 136.000000
19831, 36.000000, 272.000000, 136.000000
19832, 40.000000, 272.000000, 136.000000
19833, 44.000000, 272.000000, 136.000000
19834, 48.000000, 272.000000, 136.000000
19835, 52.000000, 272.000000, 136.000000
19836, 56.000000, 272.000000, 136.000000
19837, 60.000000, 272.000000, 136.000000
19838, 64.000000, 272.000000, 136.000000
19839, 68.000000, 272.000000, 136.000000
19840, 72.000000, 272.000000, 136.000000
19841, 36.000000, 276.000000, 136.000000
19842, 40.000000, 276.000000, 136.000000
19843, 44.000000, 276.000000, 136.000000
19844, 48.000000, 276.000000, 136.000000
19845, 52.000000, 276.000000, 136.000000
19846, 56.000000, 276.000000, 136.000000
19847, 60.000000, 276.000000, 136.000000
19848, 64.000000, 276.000000, 136.000000
19849, 68.000000, 276.000000, 136.000000
19850, 72.000000, 276.000000, 136.000000
19851, 36.000000, 280.000000, 136.000000
19852, 40.000000, 280.000000, 136.000000
19853, 44.000000, 280.000000, 136.000000
19854, 48.000000, 280.000000, 136.000000
19855, 52.000000, 280.000000, 136.000000
19856, 56.000000, 280.000000, 136.000000
19857, 60.000000, 280.000000, 136.000000
19858, 64.000000, 280.000000, 136.000000
19859, 68.000000, 280.000000, 136.000000
19860, 72.000000, 280.000000, 136.000000
19861, 36.000000, 284.000000, 136.000000
19862, 40.000000, 284.000000, 136.000000
19863, 44.000000, 284.000000, 136.000000
19864, 48.000000, 284.000000, 136.000000
19865, 52.000000, 284.000000, 136.000000
19866, 56.000000, 284.000000, 136.000000
19867, 60.000000, 284.000000, 136.000000
19868, 64.000000, 284.000000, 136.000000
19869, 68.000000, 284.000000, 136.000000
19870, 72.000000, 284.000000, 136.000000
19871, 36.000000, 288.000000, 136.000000
19872, 40.000000, 288.000000, 136.000000
19873, 44.000000, 288.000000, 136.000000
19874, 48.000000, 288.000000, 136.000000
19875, 52.000000, 288.000000, 136.000000
19876, 56.000000, 288.000000, 136.000000
19877, 60.000000, 288.000000, 136.000000
19878, 64.000000, 288.000000, 136.000000
19879, 68.000000, 288.000000, 136.000000
19880, 72.000000, 288.000000, 136.000000
19881, 36.000000, 292.000000, 136.000000
19882, 40.000000, 292.000000, 136.000000
19883, 44.000000, 292.000000, 136.000000
19884, 48.000000, 292.000000, 136.000000
19885, 52.000000, 292.000000, 136.000000
19886, 56.000000, 292.000000, 136.000000
19887, 60.000000, 292.000000, 136.000000
19888, 64.000000, 292.000000, 136.000000
19889, 68.000000, 292.000000, 136.000000
19890, 72.000000, 292.000000, 136.000000
19891, 36.000000, 296.000000, 136.000000
19892, 40.000000, 296.000000, 136.000000
19893, 44.000000, 296.000000, 136.000000
19894, 48.000000, 296.000000, 136.000000
19895, 52.000000, 296.000000, 136.000000
19896, 56.000000, 296.000000, 136.000000
19897, 60.000000, 296.000000, 136.000000
19898, 64.000000, 296.000000, 136.000000
19899, 68.000000, 296.000000, 136.000000
19900, 72.000000, 296.000000, 136.000000
19901, 36.000000, 300.000000, 136.000000
19902, 40.000000, 300.000000, 136.000000
19903, 44.000000, 300.000000, 136.000000
19904, 48.000000, 300.000000, 136.000000
19905, 52.000000, 300.000000, 136.000000
19906, 56.000000, 300.000000, 136.000000
19907, 60.000000, 300.000000, 136.000000
19908, 64.000000, 300.000000, 136.000000
19909, 68.000000, 300.000000, 136.000000
19910, 72.000000, 300.000000, 136.000000
19911, 36.000000, 304.000000, 136.000000
19912, 40.000000, 304.000000, 136.000000
19913, 44.000000, 304.000000, 136.000000
19914, 48.000000, 304.000000, 136.000000
19915, 52.000000, 304.000000, 136.000000
19916, 56.000000, 304.000000, 136.000000
19917, 60.000000, 304.000000, 136.000000
19918, 64.000000, 304.000000, 136.000000
19919, 68.000000, 304.000000, 136.000000
19920, 72.000000, 304.000000, 136.000000
19921, 36.000000, 308.000000, 136.000000
19922, 40.000000, 308.000000, 136.000000
19923, 44.000000, 308.000000, 136.000000
19924, 48.000000, 308.000000, 136.000000
19925, 52.000000, 308.000000, 136.000000
19926, 56.000000, 308.000000, 136.000000
19927, 60.000000, 308.000000, 136.000000
19928, 64.000000, 308.000000, 136.000000
19929, 68.000000, 308.000000, 136.000000
19930, 72.000000, 308.000000, 136.000000
19931, 36.000000, 312.000000, 136.000000
19932, 40.000000, 312.000000, 136.000000
19933, 44.000000, 312.000000, 136.000000
19934, 48.000000, 312.000000, 136.000000
19935, 52.000000, 312.000000, 136.000000
19936, 56.000000, 312.000000, 136.000000
19937, 60.000000, 312.000000, 136.000000
19938, 64.000000, 312.000000, 136.000000
19939, 68.000000, 312.000000, 136.000000
19940, 72.000000, 312.000000, 136.000000
19941, 36.000000, 316.000000, 136.000000
19942, 40.000000, 316.000000, 136.000000
19943, 44.000000, 316.000000, 136.000000
19944, 48.000000, 316.000000, 136.000000
19945, 52.000000, 316.000000, 136.000000
19946, 56.000000, 316.000000, 136.000000
19947, 60.000000, 316.000000, 136.000000
19948, 64.000000, 316.000000, 136.000000
19949, 68.000000, 316.000000, 136.000000
19950, 72.000000, 316.000000, 136.000000
19951, 36.000000, 320.000000, 136.000000
19952, 40.000000, 320.000000, 136.000000
19953, 44.000000, 320.000000, 136.000000
19954, 48.000000, 320.000000, 136.000000
19955, 52.000000, 320.000000, 136.000000
19956, 56.000000, 320.000000, 136.000000
19957, 60.000000, 320.000000, 136.000000
19958, 64.000000, 320.000000, 136.000000
19959, 68.000000, 320.000000, 136.000000
19960, 72.000000, 320.000000, 136.000000
19961, 36.000000, 324.000000, 136.000000
19962, 40.000000, 324.000000, 136.000000
19963, 44.000000, 324.000000, 136.000000
19964, 48.000000, 324.000000, 136.000000
19965, 52.000000, 324.000000, 136.000000
19966, 56.000000, 324.000000, 136.000000
19967, 60.000000, 324.000000, 136.000000
19968, 64.000000, 324.000000, 136.000000
19969, 68.000000, 324.000000, 136.000000
19970, 72.000000, 324.000000, 136.000000
19971, 36.000000, 328.000000, 136.000000
19972, 40.000000, 328.000000, 136.000000
19973, 44.000000, 328.000000, 136.000000
19974, 48.000000, 328.000000, 136.000000
19975, 52.000000, 328.000000, 136.000000
19976, 56.000000, 328.000000, 136.000000
19977, 60.000000, 328.000000, 136.000000
19978, 64.000000, 328.000000, 136.000000
19979, 68.000000, 328.000000, 136.000000
19980, 72.000000, 328.000000, 136.000000
19981, 36.000000, 332.000000, 136.000000
19982, 40.000000, 332.000000, 136.000000
19983, 44.000000, 332.000000, 136.000000
19984, 48.000000, 332.000000, 136.000000
19985, 52.000000, 332.000000, 136.000000
19986, 56.000000, 332.000000, 136.000000
19987, 60.000000, 332.000000, 136.000000
19988, 64.000000, 332.000000, 136.000000
19989, 68.000000, 332.000000, 136.000000
19990, 72.000000, 332.000000, 136.000000
19991, 36.000000, 336.000000, 136.000000
19992, 40.000000, 336.000000, 136.000000
19993, 44.000000, 336.000000, 136.000000
19994, 48.000000, 336.000000, 136.000000
19995, 52.000000, 336.000000, 136.000000
19996, 56.000000, 336.000000, 136.000000
19997, 60.000000, 336.000000, 136.000000
19998, 64.000000, 336.000000, 136.000000
19999, 68.000000, 336.000000, 136.000000
20000, 72.000000, 336.000000, 136.000000
20001, 36.000000, 340.000000, 136.000000
20002, 40.000000, 340.000000, 136.000000
20003, 44.000000, 340.000000, 136.000000
20004, 48.000000, 340.000000, 136.000000
20005, 52.000000, 340.000000, 136.000000
20006, 56.000000, 340.000000, 136.000000
20007, 60.000000, 340.000000, 136.000000
20008, 64.000000, 340.000000, 136.000000
20009, 68.000000, 340.000000, 136.000000
20010, 72.000000, 340.000000, 136.000000
20011, 36.000000, 344.000000, 136.000000
20012, 40.000000, 344.000000, 136.000000
20013, 44.000000, 344.000000, 136.000000
20014, 48.000000, 344.000000, 136.000000
20015, 52.000000, 344.000000, 136.000000
20016, 56.000000, 344.000000, 136.000000
20017, 60.000000, 344.000000, 136.000000
20018, 64.000000, 344.000000, 136.000000
20019, 68.000000, 344.000000, 136.000000
20020, 72.000000, 344.000000, 136.000000
20021, 36.000000, 348.000000, 136.000000
20022, 40.000000, 348.000000, 136.000000
20023, 44.000000, 348.000000, 136.000000
20024, 48.000000, 348.000000, 136.000000
20025, 52.000000, 348.000000, 136.000000
20026, 56.000000, 348.000000, 136.000000
20027, 60.000000, 348.000000, 136.000000
20028, 64.000000, 348.000000, 136.000000
20029, 68.000000, 348.000000, 136.000000
20030, 72.000000, 348.000000, 136.000000
20031, 36.000000, 352.000000, 136.000000
20032, 40.000000, 352.000000, 136.000000
20033, 44.000000, 352.000000, 136.000000
20034, 48.000000, 352.000000, 136.000000
20035, 52.000000, 352.000000, 136.000000
20036, 56.000000, 352.000000, 136.000000
20037, 60.000000, 352.000000, 136.000000
20038, 64.000000, 352.000000, 136.000000
20039, 68.000000, 352.000000, 136.000000
20040, 72.000000, 352.000000, 136.000000
20041, 36.000000, 356.000000, 136.000000
20042, 40.000000, 356.000000, 136.000000
20043, 44.000000, 356.000000, 136.000000
20044, 48.000000, 356.000000, 136.000000
20045, 52.000000, 356.000000, 136.000000
20046, 56.000000, 356.000000, 136.000000
20047, 60.000000, 356.000000, 136.000000
20048, 64.000000, 356.000000, 136.000000
20049, 68.000000, 356.000000, 136.000000
20050, 72.000000, 356.000000, 136.000000
20051, 36.000000, 360.000000, 136.000000
20052, 40.000000, 360.000000, 136.000000
20053, 44.000000, 360.000000, 136.000000
20054, 48.000000, 360.000000, 136.000000
20055, 52.000000, 360.000000, 136.000000
20056, 56.000000, 360.000000, 136.000000
20057, 60.000000, 360.000000, 136.000000
20058, 64.000000, 360.000000, 136.000000
20059, 68.000000, 360.000000, 136.000000
20060, 72.000000, 360.000000, 136.000000
20061, 36.000000, 364.000000, 136.000000
20062, 40.000000, 364.000000, 136.000000
20063, 44.000000, 364.000000, 136.000000
20064, 48.000000, 364.000000, 136.000000
20065, 52.000000, 364.000000, 136.000000
20066, 56.000000, 364.000000, 136.000000
20067, 60.000000, 364.000000, 136.000000
20068, 64.000000, 364.000000, 136.000000
20069, 68.000000, 364.000000, 136.000000
20070, 72.000000, 364.000000, 136.000000
20071, 36.000000, 368.000000, 136.000000
20072, 40.000000, 368.000000, 136.000000
20073, 44.000000, 368.000000, 136.000000
20074, 48.000000, 368.000000, 136.000000
20075, 52.000000, 368.000000, 136.000000
20076, 56.000000, 368.000000, 136.000000
20077, 60.000000, 368.000000, 136.000000
20078, 64.000000, 368.000000, 136.000000
20079, 68.000000, 368.000000, 136.000000
20080, 72.000000, 368.000000, 136.000000
20081, 36.000000, 372.000000, 136.000000
20082, 40.000000, 372.000000, 136.000000
20083, 44.000000, 372.000000, 136.000000
20084, 48.000000, 372.000000, 136.000000
20085, 52.000000, 372.000000, 136.000000
20086, 56.000000, 372.000000, 136.000000
20087, 60.000000, 372.000000, 136.000000
20088, 64.000000, 372.000000, 136.000000
20089, 68.000000, 372.000000, 136.000000
20090, 72.000000, 372.000000, 136.000000
20091, 36.000000, 376.000000, 136.000000
20092, 40.000000, 376.000000, 136.000000
20093, 44.000000, 376.000000, 136.000000
20094, 48.000000, 376.000000, 136.000000
20095, 52.000000, 376.000000, 136.000000
20096, 56.000000, 376.000000, 136.000000
20097, 60.000000, 376.000000, 136.000000
20098, 64.000000, 376.000000, 136.000000
20099, 68.000000, 376.000000, 136.000000
20100, 72.000000, 376.000000, 136.000000
20101, 36.000000, 380.000000, 136.000000
20102, 40.000000, 380.000000, 136.000000
20103, 44.000000, 380.000000, 136.000000
20104, 48.000000, 380.000000, 136.000000
20105, 52.000000, 380.000000, 136.000000
20106, 56.000000, 380.000000, 136.000000
20107, 60.000000, 380.000000, 136.000000
20108, 64.000000, 380.000000, 136.000000
20109, 68.000000, 380.000000, 136.000000
20110, 72.000000, 380.000000, 136.000000
20111, 36.000000, 384.000000, 136.000000
20112, 40.000000, 384.000000, 136.000000
20113, 44.000000, 384.000000, 136.000000
20114, 48.000000, 384.000000, 136.000000
20115, 52.000000, 384.000000, 136.000000
20116, 56.000000, 384.000000, 136.000000
20117, 60.000000, 384.000000, 136.000000
20118, 64.000000, 384.000000, 136.000000
20119, 68.000000, 384.000000, 136.000000
20120, 72.000000, 384.000000, 136.000000
20121, 36.000000, 388.000000, 136.000000
20122, 40.000000, 388.000000, 136.000000
20123, 44.000000, 388.000000, 136.000000
20124, 48.000000, 388.000000, 136.000000
20125, 52.000000, 388.000000, 136.000000
20126, 56.000000, 388.000000, 136.000000
20127, 60.000000, 388.000000, 136.000000
20128, 64.000000, 388.000000, 136.000000
20129, 68.000000, 388.000000, 136.000000
20130, 72.000000, 388.000000, 136.000000
20131, 36.000000, 392.000000, 136.000000
20132, 40.000000, 392.000000, 136.000000
20133, 44.000000, 392.000000, 136.000000
20134, 48.000000, 392.000000, 136.000000
20135, 52.000000, 392.000000, 136.000000
20136, 56.000000, 392.000000, 136.000000
20137, 60.000000, 392.000000, 136.000000
20138, 64.000000, 392.000000, 136.000000
20139, 68.000000, 392.000000, 136.000000
20140, 72.000000, 392.000000, 136.000000
20141, 36.000000, 396.000000, 136.000000
20142, 40.000000, 396.000000, 136.000000
20143, 44.000000, 396.000000, 136.000000
20144, 48.000000, 396.000000, 136.000000
20145, 52.000000, 396.000000, 136.000000
20146, 56.000000, 396.000000, 136.000000
20147, 60.000000, 396.000000, 136.000000
20148, 64.000000, 396.000000, 136.000000
20149, 68.000000, 396.000000, 136.000000
20150, 72.000000, 396.000000, 136.000000
20151, 36.000000, 400.000000, 136.000000
20152, 40.000000, 400.000000, 136.000000
20153, 44.000000, 400.000000, 136.000000
20154, 48.000000, 400.000000, 136.000000
20155, 52.000000, 400.000000, 136.000000
20156, 56.000000, 400.000000, 136.000000
20157, 60.000000, 400.000000, 136.000000
20158, 64.000000, 400.000000, 136.000000
20159, 68.000000, 400.000000, 136.000000
20160, 72.000000, 400.000000, 136.000000
20161, 36.000000, 404.000000, 136.000000
20162, 40.000000, 404.000000, 136.000000
20163, 44.000000, 404.000000, 136.000000
20164, 48.000000, 404.000000, 136.000000
20165, 52.000000, 404.000000, 136.000000
20166, 56.000000, 404.000000, 136.000000
20167, 60.000000, 404.000000, 136.000000
20168, 64.000000, 404.000000, 136.000000
20169, 68.000000, 404.000000, 136.000000
20170, 72.000000, 404.000000, 136.000000
20171, 36.000000, 408.000000, 136.000000
20172, 40.000000, 408.000000, 136.000000
20173, 44.000000, 408.000000, 136.000000
20174, 48.000000, 408.000000, 136.000000
20175, 52.000000, 408.000000, 136.000000
20176, 56.000000, 408.000000, 136.000000
20177, 60.000000, 408.000000, 136.000000
20178, 64.000000, 408.000000, 136.000000
20179, 68.000000, 408.000000, 136.000000
20180, 72.000000, 408.000000, 136.000000
20181, 36.000000, 412.000000, 136.000000
20182, 40.000000, 412.000000, 136.000000
20183, 44.000000, 412.000000, 136.000000
20184, 48.000000, 412.000000, 136.000000
20185, 52.000000, 412.000000, 136.000000
20186, 56.000000, 412.000000, 136.000000
20187, 60.000000, 412.000000, 136.000000
20188, 64.000000, 412.000000, 136.000000
20189, 68.000000, 412.000000, 136.000000
20190, 72.000000, 412.000000, 136.000000
20191, 36.000000, 416.000000, 136.000000
20192, 40.000000, 416.000000, 136.000000
20193, 44.000000, 416.000000, 136.000000
20194, 48.000000, 416.000000, 136.000000
20195, 52.000000, 416.000000, 136.000000
20196, 56.000000, 416.000000, 136.000000
20197, 60.000000, 416.000000, 136.000000
20198, 64.000000, 416.000000, 136.000000
20199, 68.000000, 416.000000, 136.000000
20200, 72.000000, 416.000000, 136.000000
20201, 36.000000, 420.000000, 136.000000
20202, 40.000000, 420.000000, 136.000000
20203, 44.000000, 420.000000, 136.000000
20204, 48.000000, 420.000000, 136.000000
20205, 52.000000, 420.000000, 136.000000
20206, 56.000000, 420.000000, 136.000000
20207, 60.000000, 420.000000, 136.000000
20208, 64.000000, 420.000000, 136.000000
20209, 68.000000, 420.000000, 136.000000
20210, 72.000000, 420.000000, 136.000000
20211, 36.000000, 424.000000, 136.000000
20212, 40.000000, 424.000000, 136.000000
20213, 44.000000, 424.000000, 136.000000
20214, 48.000000, 424.000000, 136.000000
20215, 52.000000, 424.000000, 136.000000
20216, 56.000000, 424.000000, 136.000000
20217, 60.000000, 424.000000, 136.000000
20218, 64.000000, 424.000000, 136.000000
20219, 68.000000, 424.000000, 136.000000
20220, 72.000000, 424.000000, 136.000000
20221, 36.000000, 428.000000, 136.000000
20222, 40.000000, 428.000000, 136.000000
20223, 44.000000, 428.000000, 136.000000
20224, 48.000000, 428.000000, 136.000000
20225, 52.000000, 428.000000, 136.000000
20226, 56.000000, 428.000000, 136.000000
20227, 60.000000, 428.000000, 136.000000
20228, 64.000000, 428.000000, 136.000000
20229, 68.000000, 428.000000, 136.000000
20230, 72.000000, 428.000000, 136.000000
20231, 36.000000, 432.000000, 136.000000
20232, 40.000000, 432.000000, 136.000000
20233, 44.000000, 432.000000, 136.000000
20234, 48.000000, 432.000000, 136.000000
20235, 52.000000, 432.000000, 136.000000
20236, 56.000000, 432.000000, 136.000000
20237, 60.000000, 432.000000, 136.000000
20238, 64.000000, 432.000000, 136.000000
20239, 68.000000, 432.000000, 136.000000
20240, 72.000000, 432.000000, 136.000000
20241, 36.000000, 436.000000, 136.000000
20242, 40.000000, 436.000000, 136.000000
20243, 44.000000, 436.000000, 136.000000
20244, 48.000000, 436.000000, 136.000000
20245, 52.000000, 436.000000, 136.000000
20246, 56.000000, 436.000000, 136.000000
20247, 60.000000, 436.000000, 136.000000
20248, 64.000000, 436.000000, 136.000000
20249, 68.000000, 436.000000, 136.000000
20250, 72.000000, 436.000000, 136.000000
20251, 36.000000, 440.000000, 136.000000
20252, 40.000000, 440.000000, 136.000000
20253, 44.000000, 440.000000, 136.000000
20254, 48.000000, 440.000000, 136.000000
20255, 52.000000, 440.000000, 136.000000
20256, 56.000000, 440.000000, 136.000000
20257, 60.000000, 440.000000, 136.000000
20258, 64.000000, 440.000000, 136.000000
20259, 68.000000, 440.000000, 136.000000
20260, 72.000000, 440.000000, 136.000000
20261, 36.000000, 444.000000, 136.000000
20262, 40.000000, 444.000000, 136.000000
20263, 44.000000, 444.000000, 136.000000
20264, 48.000000, 444.000000, 136.000000
20265, 52.000000, 444.000000, 136.000000
20266, 56.000000, 444.000000, 136.000000
20267, 60.000000, 444.000000, 136.000000
20268, 64.000000, 444.000000, 136.000000
20269, 68.000000, 444.000000, 136.000000
20270, 72.000000, 444.000000, 136.000000
20271, 36.000000, 448.000000, 136.000000
20272, 40.000000, 448.000000, 136.000000
20273, 44.000000, 448.000000, 136.000000
20274, 48.000000, 448.000000, 136.000000
20275, 52.000000, 448.000000, 136.000000
20276, 56.000000, 448.000000, 136.000000
20277, 60.000000, 448.000000, 136.000000
20278, 64.000000, 448.000000, 136.000000
20279, 68.000000, 448.000000, 136.000000
20280, 72.000000, 448.000000, 136.000000
20281, 36.000000, 452.000000, 136.000000
20282, 40.000000, 452.000000, 136.000000
20283, 44.000000, 452.000000, 136.000000
20284, 48.000000, 452.000000, 136.000000
20285, 52.000000, 452.000000, 136.000000
20286, 56.000000, 452.000000, 136.000000
20287, 60.000000, 452.000000, 136.000000
20288, 64.000000, 452.000000, 136.000000
20289, 68.000000, 452.000000, 136.000000
20290, 72.000000, 452.000000, 136.000000
20291, 36.000000, 456.000000, 136.000000
20292, 40.000000, 456.000000, 136.000000
20293, 44.000000, 456.000000, 136.000000
20294, 48.000000, 456.000000, 136.000000
20295, 52.000000, 456.000000, 136.000000
20296, 56.000000, 456.000000, 136.000000
20297, 60.000000, 456.000000, 136.000000
20298, 64.000000, 456.000000, 136.000000
20299, 68.000000, 456.000000, 136.000000
20300, 72.000000, 456.000000, 136.000000
20301, 36.000000, 228.000000, 140.000000
20302, 40.000000, 228.000000, 140.000000
20303, 44.000000, 228.000000, 140.000000
20304, 48.000000, 228.000000, 140.000000
20305, 52.000000, 228.000000, 140.000000
20306, 56.000000, 228.000000, 140.000000
20307, 60.000000, 228.000000, 140.000000
20308, 64.000000, 228.000000, 140.000000
20309, 68.000000, 228.000000, 140.000000
20310, 72.000000, 228.000000, 140.000000
20311, 36.000000, 232.000000, 140.000000
20312, 40.000000, 232.000000, 140.000000
20313, 44.000000, 232.000000, 140.000000
20314, 48.000000, 232.000000, 140.000000
20315, 52.000000, 232.000000, 140.000000
20316, 56.000000, 232.000000, 140.000000
20317, 60.000000, 232.000000, 140.000000
20318, 64.000000, 232.000000, 140.000000
20319, 68.000000, 232.000000, 140.000000
20320, 72.000000, 232.000000, 140.000000
20321, 36.000000, 236.000000, 140.000000
20322, 40.000000, 236.000000, 140.000000
20323, 44.000000, 236.000000, 140.000000
20324, 48.000000, 236.000000, 140.000000
20325, 52.000000, 236.000000, 140.000000
20326, 56.000000, 236.000000, 140.000000
20327, 60.000000, 236.000000, 140.000000
20328, 64.000000, 236.000000, 140.000000
20329, 68.000000, 236.000000, 140.000000
20330, 72.000000, 236.000000, 140.000000
20331, 36.000000, 240.000000, 140.000000
20332, 40.000000, 240.000000, 140.000000
20333, 44.000000, 240.000000, 140.000000
20334, 48.000000, 240.000000, 140.000000
20335, 52.000000, 240.000000, 140.000000
20336, 56.000000, 240.000000, 140.000000
20337, 60.000000, 240.000000, 140.000000
20338, 64.000000, 240.000000, 140.000000
20339, 68.000000, 240.000000, 140.000000
20340, 72.000000, 240.000000, 140.000000
20341, 36.000000, 244.000000, 140.000000
20342, 40.000000, 244.000000, 140.000000
20343, 44.000000, 244.000000, 140.000000
20344, 48.000000, 244.000000, 140.000000
20345, 52.000000, 244.000000, 140.000000
20346, 56.000000, 244.000000, 140.000000
20347, 60.000000, 244.000000, 140.000000
20348, 64.000000, 244.000000, 140.000000
20349, 68.000000, 244.000000, 140.000000
20350, 72.000000, 244.000000, 140.000000
20351, 36.000000, 248.000000, 140.000000
20352, 40.000000, 248.000000, 140.000000
20353, 44.000000, 248.000000, 140.000000
20354, 48.000000, 248.000000, 140.000000
20355, 52.000000, 248.000000, 140.000000
20356, 56.000000, 248.000000, 140.000000
20357, 60.000000, 248.000000, 140.000000
20358, 64.000000, 248.000000, 140.000000
20359, 68.000000, 248.000000, 140.000000
20360, 72.000000, 248.000000, 140.000000
20361, 36.000000, 252.000000, 140.000000
20362, 40.000000, 252.000000, 140.000000
20363, 44.000000, 252.000000, 140.000000
20364, 48.000000, 252.000000, 140.000000
20365, 52.000000, 252.000000, 140.000000
20366, 56.000000, 252.000000, 140.000000
20367, 60.000000, 252.000000, 140.000000
20368, 64.000000, 252.000000, 140.000000
20369, 68.000000, 252.000000, 140.000000
20370, 72.000000, 252.000000, 140.000000
20371, 36.000000, 256.000000, 140.000000
20372, 40.000000, 256.000000, 140.000000
20373, 44.000000, 256.000000, 140.000000
20374, 48.000000, 256.000000, 140.000000
20375, 52.000000, 256.000000, 140.000000
20376, 56.000000, 256.000000, 140.000000
20377, 60.000000, 256.000000, 140.000000
20378, 64.000000, 256.000000, 140.000000
20379, 68.000000, 256.000000, 140.000000
20380, 72.000000, 256.000000, 140.000000
20381, 36.000000, 260.000000, 140.000000
20382, 40.000000, 260.000000, 140.000000
20383, 44.000000, 260.000000, 140.000000
20384, 48.000000, 260.000000, 140.000000
20385, 52.000000, 260.000000, 140.000000
20386, 56.000000, 260.000000, 140.000000
20387, 60.000000, 260.000000, 140.000000
20388, 64.000000, 260.000000, 140.000000
20389, 68.000000, 260.000000, 140.000000
20390, 72.000000, 260.000000, 140.000000
20391, 36.000000, 264.000000, 140.000000
20392, 40.000000, 264.000000, 140.000000
20393, 44.000000, 264.000000, 140.000000
20394, 48.000000, 264.000000, 140.000000
20395, 52.000000, 264.000000, 140.000000
20396, 56.000000, 264.000000, 140.000000
20397, 60.000000, 264.000000, 140.000000
20398, 64.000000, 264.000000, 140.000000
20399, 68.000000, 264.000000, 140.000000
20400, 72.000000, 264.000000, 140.000000
20401, 36.000000, 268.000000, 140.000000
20402, 40.000000, 268.000000, 140.000000
20403, 44.000000, 268.000000, 140.000000
20404, 48.000000, 268.000000, 140.000000
20405, 52.000000, 268.000000, 140.000000
20406, 56.000000, 268.000000, 140.000000
20407, 60.000000, 268.000000, 140.000000
20408, 64.000000, 268.000000, 140.000000
20409, 68.000000, 268.000000, 140.000000
20410, 72.000000, 268.000000, 140.000000
20411, 36.000000, 272.000000, 140.000000
20412, 40.000000, 272.000000, 140.000000
20413, 44.000000, 272.000000, 140.000000
20414, 48.000000, 272.000000, 140.000000
20415, 52.000000, 272.000000, 140.000000
20416, 56.000000, 272.000000, 140.000000
20417, 60.000000, 272.000000, 140.000000
20418, 64.000000, 272.000000, 140.000000
20419, 68.000000, 272.000000, 140.000000
20420, 72.000000, 272.000000, 140.000000
20421, 36.000000, 276.000000, 140.000000
20422, 40.000000, 276.000000, 140.000000
20423, 44.000000, 276.000000, 140.000000
20424, 48.000000, 276.000000, 140.000000
20425, 52.000000, 276.000000, 140.000000
20426, 56.000000, 276.000000, 140.000000
20427, 60.000000, 276.000000, 140.000000
20428, 64.000000, 276.000000, 140.000000
20429, 68.000000, 276.000000, 140.000000
20430, 72.000000, 276.000000, 140.000000
20431, 36.000000, 280.000000, 140.000000
20432, 40.000000, 280.000000, 140.000000
20433, 44.000000, 280.000000, 140.000000
20434, 48.000000, 280.000000, 140.000000
20435, 52.000000, 280.000000, 140.000000
20436, 56.000000, 280.000000, 140.000000
20437, 60.000000, 280.000000, 140.000000
20438, 64.000000, 280.000000, 140.000000
20439, 68.000000, 280.000000, 140.000000
20440, 72.000000, 280.000000, 140.000000
20441, 36.000000, 284.000000, 140.000000
20442, 40.000000, 284.000000, 140.000000
20443, 44.000000, 284.000000, 140.000000
20444, 48.000000, 284.000000, 140.000000
20445, 52.000000, 284.000000, 140.000000
20446, 56.000000, 284.000000, 140.000000
20447, 60.000000, 284.000000, 140.000000
20448, 64.000000, 284.000000, 140.000000
20449, 68.000000, 284.000000, 140.000000
20450, 72.000000, 284.000000, 140.000000
20451, 36.000000, 288.000000, 140.000000
20452, 40.000000, 288.000000, 140.000000
20453, 44.000000, 288.000000, 140.000000
20454, 48.000000, 288.000000, 140.000000
20455, 52.000000, 288.000000, 140.000000
20456, 56.000000, 288.000000, 140.000000
20457, 60.000000, 288.000000, 140.000000
20458, 64.000000, 288.000000, 140.000000
20459, 68.000000, 288.000000, 140.000000
20460, 72.000000, 288.000000, 140.000000
20461, 36.000000, 292.000000, 140.000000
20462, 40.000000, 292.000000, 140.000000
20463, 44.000000, 292.000000, 140.000000
20464, 48.000000, 292.000000, 140.000000
20465, 52.000000, 292.000000, 140.000000
20466, 56.000000, 292.000000, 140.000000
20467, 60.000000, 292.000000, 140.000000
20468, 64.000000, 292.000000, 140.000000
20469, 68.000000, 292.000000, 140.000000
20470, 72.000000, 292.000000, 140.000000
20471, 36.000000, 296.000000, 140.000000
20472, 40.000000, 296.000000, 140.000000
20473, 44.000000, 296.000000, 140.000000
20474, 48.000000, 296.000000, 140.000000
20475, 52.000000, 296.000000, 140.000000
20476, 56.000000, 296.000000, 140.000000
20477, 60.000000, 296.000000, 140.000000
20478, 64.000000, 296.000000, 140.000000
20479, 68.000000, 296.000000, 140.000000
20480, 72.000000, 296.000000, 140.000000
20481, 36.000000, 300.000000, 140.000000
20482, 40.000000, 300.000000, 140.000000
20483, 44.000000, 300.000000, 140.000000
20484, 48.000000, 300.000000, 140.000000
20485, 52.000000, 300.000000, 140.000000
20486, 56.000000, 300.000000, 140.000000
20487, 60.000000, 300.000000, 140.000000
20488, 64.000000, 300.000000, 140.000000
20489, 68.000000, 300.000000, 140.000000
20490, 72.000000, 300.000000, 140.000000
20491, 36.000000, 304.000000, 140.000000
20492, 40.000000, 304.000000, 140.000000
20493, 44.000000, 304.000000, 140.000000
20494, 48.000000, 304.000000, 140.000000
20495, 52.000000, 304.000000, 140.000000
20496, 56.000000, 304.000000, 140.000000
20497, 60.000000, 304.000000, 140.000000
20498, 64.000000, 304.000000, 140.000000
20499, 68.000000, 304.000000, 140.000000
20500, 72.000000, 304.000000, 140.000000
20501, 36.000000, 308.000000, 140.000000
20502, 40.000000, 308.000000, 140.000000
20503, 44.000000, 308.000000, 140.000000
20504, 48.000000, 308.000000, 140.000000
20505, 52.000000, 308.000000, 140.000000
20506, 56.000000, 308.000000, 140.000000
20507, 60.000000, 308.000000, 140.000000
20508, 64.000000, 308.000000, 140.000000
20509, 68.000000, 308.000000, 140.000000
20510, 72.000000, 308.000000, 140.000000
20511, 36.000000, 312.000000, 140.000000
20512, 40.000000, 312.000000, 140.000000
20513, 44.000000, 312.000000, 140.000000
20514, 48.000000, 312.000000, 140.000000
20515, 52.000000, 312.000000, 140.000000
20516, 56.000000, 312.000000, 140.000000
20517, 60.000000, 312.000000, 140.000000
20518, 64.000000, 312.000000, 140.000000
20519, 68.000000, 312.000000, 140.000000
20520, 72.000000, 312.000000, 140.000000
20521, 36.000000, 316.000000, 140.000000
20522, 40.000000, 316.000000, 140.000000
20523, 44.000000, 316.000000, 140.000000
20524, 48.000000, 316.000000, 140.000000
20525, 52.000000, 316.000000, 140.000000
20526, 56.000000, 316.000000, 140.000000
20527, 60.000000, 316.000000, 140.000000
20528, 64.000000, 316.000000, 140.000000
20529, 68.000000, 316.000000, 140.000000
20530, 72.000000, 316.000000, 140.000000
20531, 36.000000, 320.000000, 140.000000
20532, 40.000000, 320.000000, 140.000000
20533, 44.000000, 320.000000, 140.000000
20534, 48.000000, 320.000000, 140.000000
20535, 52.000000, 320.000000, 140.000000
20536, 56.000000, 320.000000, 140.000000
20537, 60.000000, 320.000000, 140.000000
20538, 64.000000, 320.000000, 140.000000
20539, 68.000000, 320.000000, 140.000000
20540, 72.000000, 320.000000, 140.000000
20541, 36.000000, 324.000000, 140.000000
20542, 40.000000, 324.000000, 140.000000
20543, 44.000000, 324.000000, 140.000000
20544, 48.000000, 324.000000, 140.000000
20545, 52.000000, 324.000000, 140.000000
20546, 56.000000, 324.000000, 140.000000
20547, 60.000000, 324.000000, 140.000000
20548, 64.000000, 324.000000, 140.000000
20549, 68.000000, 324.000000, 140.000000
20550, 72.000000, 324.000000, 140.000000
20551, 36.000000, 328.000000, 140.000000
20552, 40.000000, 328.000000, 140.000000
20553, 44.000000, 328.000000, 140.000000
20554, 48.000000, 328.000000, 140.000000
20555, 52.000000, 328.000000, 140.000000
20556, 56.000000, 328.000000, 140.000000
20557, 60.000000, 328.000000, 140.000000
20558, 64.000000, 328.000000, 140.000000
20559, 68.000000, 328.000000, 140.000000
20560, 72.000000, 328.000000, 140.000000
20561, 36.000000, 332.000000, 140.000000
20562, 40.000000, 332.000000, 140.000000
20563, 44.000000, 332.000000, 140.000000
20564, 48.000000, 332.000000, 140.000000
20565, 52.000000, 332.000000, 140.000000
20566, 56.000000, 332.000000, 140.000000
20567, 60.000000, 332.000000, 140.000000
20568, 64.000000, 332.000000, 140.000000
20569, 68.000000, 332.000000, 140.000000
20570, 72.000000, 332.000000, 140.000000
20571, 36.000000, 336.000000, 140.000000
20572, 40.000000, 336.000000, 140.000000
20573, 44.000000, 336.000000, 140.000000
20574, 48.000000, 336.000000, 140.000000
20575, 52.000000, 336.000000, 140.000000
20576, 56.000000, 336.000000, 140.000000
20577, 60.000000, 336.000000, 140.000000
20578, 64.000000, 336.000000, 140.000000
20579, 68.000000, 336.000000, 140.000000
20580, 72.000000, 336.000000, 140.000000
20581, 36.000000, 340.000000, 140.000000
20582, 40.000000, 340.000000, 140.000000
20583, 44.000000, 340.000000, 140.000000
20584, 48.000000, 340.000000, 140.000000
20585, 52.000000, 340.000000, 140.000000
20586, 56.000000, 340.000000, 140.000000
20587, 60.000000, 340.000000, 140.000000
20588, 64.000000, 340.000000, 140.000000
20589, 68.000000, 340.000000, 140.000000
20590, 72.000000, 340.000000, 140.000000
20591, 36.000000, 344.000000, 140.000000
20592, 40.000000, 344.000000, 140.000000
20593, 44.000000, 344.000000, 140.000000
20594, 48.000000, 344.000000, 140.000000
20595, 52.000000, 344.000000, 140.000000
20596, 56.000000, 344.000000, 140.000000
20597, 60.000000, 344.000000, 140.000000
20598, 64.000000, 344.000000, 140.000000
20599, 68.000000, 344.000000, 140.000000
20600, 72.000000, 344.000000, 140.000000
20601, 36.000000, 348.000000, 140.000000
20602, 40.000000, 348.000000, 140.000000
20603, 44.000000, 348.000000, 140.000000
20604, 48.000000, 348.000000, 140.000000
20605, 52.000000, 348.000000, 140.000000
20606, 56.000000, 348.000000, 140.000000
20607, 60.000000, 348.000000, 140.000000
20608, 64.000000, 348.000000, 140.000000
20609, 68.000000, 348.000000, 140.000000
20610, 72.000000, 348.000000, 140.000000
20611, 36.000000, 352.000000, 140.000000
20612, 40.000000, 352.000000, 140.000000
20613, 44.000000, 352.000000, 140.000000
20614, 48.000000, 352.000000, 140.000000
20615, 52.000000, 352.000000, 140.000000
20616, 56.000000, 352.000000, 140.000000
20617, 60.000000, 352.000000, 140.000000
20618, 64.000000, 352.000000, 140.000000
20619, 68.000000, 352.000000, 140.000000
20620, 72.000000, 352.000000, 140.000000
20621, 36.000000, 356.000000, 140.000000
20622, 40.000000, 356.000000, 140.000000
20623, 44.000000, 356.000000, 140.000000
20624, 48.000000, 356.000000, 140.000000
20625, 52.000000, 356.000000, 140.000000
20626, 56.000000, 356.000000, 140.000000
20627, 60.000000, 356.000000, 140.000000
20628, 64.000000, 356.000000, 140.000000
20629, 68.000000, 356.000000, 140.000000
20630, 72.000000, 356.000000, 140.000000
20631, 36.000000, 360.000000, 140.000000
20632, 40.000000, 360.000000, 140.000000
20633, 44.000000, 360.000000, 140.000000
20634, 48.000000, 360.000000, 140.000000
20635, 52.000000, 360.000000, 140.000000
20636, 56.000000, 360.000000, 140.000000
20637, 60.000000, 360.000000, 140.000000
20638, 64.000000, 360.000000, 140.000000
20639, 68.000000, 360.000000, 140.000000
20640, 72.000000, 360.000000, 140.000000
20641, 36.000000, 364.000000, 140.000000
20642, 40.000000, 364.000000, 140.000000
20643, 44.000000, 364.000000, 140.000000
20644, 48.000000, 364.000000, 140.000000
20645, 52.000000, 364.000000, 140.000000
20646, 56.000000, 364.000000, 140.000000
20647, 60.000000, 364.000000, 140.000000
20648, 64.000000, 364.000000, 140.000000
20649, 68.000000, 364.000000, 140.000000
20650, 72.000000, 364.000000, 140.000000
20651, 36.000000, 368.000000, 140.000000
20652, 40.000000, 368.000000, 140.000000
20653, 44.000000, 368.000000, 140.000000
20654, 48.000000, 368.000000, 140.000000
20655, 52.000000, 368.000000, 140.000000
20656, 56.000000, 368.000000, 140.000000
20657, 60.000000, 368.000000, 140.000000
20658, 64.000000, 368.000000, 140.000000
20659, 68.000000, 368.000000, 140.000000
20660, 72.000000, 368.000000, 140.000000
20661, 36.000000, 372.000000, 140.000000
20662, 40.000000, 372.000000, 140.000000
20663, 44.000000, 372.000000, 140.000000
20664, 48.000000, 372.000000, 140.000000
20665, 52.000000, 372.000000, 140.000000
20666, 56.000000, 372.000000, 140.000000
20667, 60.000000, 372.000000, 140.000000
20668, 64.000000, 372.000000, 140.000000
20669, 68.000000, 372.000000, 140.000000
20670, 72.000000, 372.000000, 140.000000
20671, 36.000000, 376.000000, 140.000000
20672, 40.000000, 376.000000, 140.000000
20673, 44.000000, 376.000000, 140.000000
20674, 48.000000, 376.000000, 140.000000
20675, 52.000000, 376.000000, 140.000000
20676, 56.000000, 376.000000, 140.000000
20677, 60.000000, 376.000000, 140.000000
20678, 64.000000, 376.000000, 140.000000
20679, 68.000000, 376.000000, 140.000000
20680, 72.000000, 376.000000, 140.000000
20681, 36.000000, 380.000000, 140.000000
20682, 40.000000, 380.000000, 140.000000
20683, 44.000000, 380.000000, 140.000000
20684, 48.000000, 380.000000, 140.000000
20685, 52.000000, 380.000000, 140.000000
20686, 56.000000, 380.000000, 140.000000
20687, 60.000000, 380.000000, 140.000000
20688, 64.000000, 380.000000, 140.000000
20689, 68.000000, 380.000000, 140.000000
20690, 72.000000, 380.000000, 140.000000
20691, 36.000000, 384.000000, 140.000000
20692, 40.000000, 384.000000, 140.000000
20693, 44.000000, 384.000000, 140.000000
20694, 48.000000, 384.000000, 140.000000
20695, 52.000000, 384.000000, 140.000000
20696, 56.000000, 384.000000, 140.000000
20697, 60.000000, 384.000000, 140.000000
20698, 64.000000, 384.000000, 140.000000
20699, 68.000000, 384.000000, 140.000000
20700, 72.000000, 384.000000, 140.000000
20701, 36.000000, 388.000000, 140.000000
20702, 40.000000, 388.000000, 140.000000
20703, 44.000000, 388.000000, 140.000000
20704, 48.000000, 388.000000, 140.000000
20705, 52.000000, 388.000000, 140.000000
20706, 56.000000, 388.000000, 140.000000
20707, 60.000000, 388.000000, 140.000000
20708, 64.000000, 388.000000, 140.000000
20709, 68.000000, 388.000000, 140.000000
20710, 72.000000, 388.000000, 140.000000
20711, 36.000000, 392.000000, 140.000000
20712, 40.000000, 392.000000, 140.000000
20713, 44.000000, 392.000000, 140.000000
20714, 48.000000, 392.000000, 140.000000
20715, 52.000000, 392.000000, 140.000000
20716, 56.000000, 392.000000, 140.000000
20717, 60.000000, 392.000000, 140.000000
20718, 64.000000, 392.000000, 140.000000
20719, 68.000000, 392.000000, 140.000000
20720, 72.000000, 392.000000, 140.000000
20721, 36.000000, 396.000000, 140.000000
20722, 40.000000, 396.000000, 140.000000
20723, 44.000000, 396.000000, 140.000000
20724, 48.000000, 396.000000, 140.000000
20725, 52.000000, 396.000000, 140.000000
20726, 56.000000, 396.000000, 140.000000
20727, 60.000000, 396.000000, 140.000000
20728, 64.000000, 396.000000, 140.000000
20729, 68.000000, 396.000000, 140.000000
20730, 72.000000, 396.000000, 140.000000
20731, 36.000000, 400.000000, 140.000000
20732, 40.000000, 400.000000, 140.000000
20733, 44.000000, 400.000000, 140.000000
20734, 48.000000, 400.000000, 140.000000
20735, 52.000000, 400.000000, 140.000000
20736, 56.000000, 400.000000, 140.000000
20737, 60.000000, 400.000000, 140.000000
20738, 64.000000, 400.000000, 140.000000
20739, 68.000000, 400.000000, 140.000000
20740, 72.000000, 400.000000, 140.000000
20741, 36.000000, 404.000000, 140.000000
20742, 40.000000, 404.000000, 140.000000
20743, 44.000000, 404.000000, 140.000000
20744, 48.000000, 404.000000, 140.000000
20745, 52.000000, 404.000000, 140.000000
20746, 56.000000, 404.000000, 140.000000
20747, 60.000000, 404.000000, 140.000000
20748, 64.000000, 404.000000, 140.000000
20749, 68.000000, 404.000000, 140.000000
20750, 72.000000, 404.000000, 140.000000
20751, 36.000000, 408.000000, 140.000000
20752, 40.000000, 408.000000, 140.000000
20753, 44.000000, 408.000000, 140.000000
20754, 48.000000, 408.000000, 140.000000
20755, 52.000000, 408.000000, 140.000000
20756, 56.000000, 408.000000, 140.000000
20757, 60.000000, 408.000000, 140.000000
20758, 64.000000, 408.000000, 140.000000
20759, 68.000000, 408.000000, 140.000000
20760, 72.000000, 408.000000, 140.000000
20761, 36.000000, 412.000000, 140.000000
20762, 40.000000, 412.000000, 140.000000
20763, 44.000000, 412.000000, 140.000000
20764, 48.000000, 412.000000, 140.000000
20765, 52.000000, 412.000000, 140.000000
20766, 56.000000, 412.000000, 140.000000
20767, 60.000000, 412.000000, 140.000000
20768, 64.000000, 412.000000, 140.000000
20769, 68.000000, 412.000000, 140.000000
20770, 72.000000, 412.000000, 140.000000
20771, 36.000000, 416.000000, 140.000000
20772, 40.000000, 416.000000, 140.000000
20773, 44.000000, 416.000000, 140.000000
20774, 48.000000, 416.000000, 140.000000
20775, 52.000000, 416.000000, 140.000000
20776, 56.000000, 416.000000, 140.000000
20777, 60.000000, 416.000000, 140.000000
20778, 64.000000, 416.000000, 140.000000
20779, 68.000000, 416.000000, 140.000000
20780, 72.000000, 416.000000, 140.000000
20781, 36.000000, 420.000000, 140.000000
20782, 40.000000, 420.000000, 140.000000
20783, 44.000000, 420.000000, 140.000000
20784, 48.000000, 420.000000, 140.000000
20785, 52.000000, 420.000000, 140.000000
20786, 56.000000, 420.000000, 140.000000
20787, 60.000000, 420.000000, 140.000000
20788, 64.000000, 420.000000, 140.000000
20789, 68.000000, 420.000000, 140.000000
20790, 72.000000, 420.000000, 140.000000
20791, 36.000000, 424.000000, 140.000000
20792, 40.000000, 424.000000, 140.000000
20793, 44.000000, 424.000000, 140.000000
20794, 48.000000, 424.000000, 140.000000
20795, 52.000000, 424.000000, 140.000000
20796, 56.000000, 424.000000, 140.000000
20797, 60.000000, 424.000000, 140.000000
20798, 64.000000, 424.000000, 140.000000
20799, 68.000000, 424.000000, 140.000000
20800, 72.000000, 424.000000, 140.000000
20801, 36.000000, 428.000000, 140.000000
20802, 40.000000, 428.000000, 140.000000
20803, 44.000000, 428.000000, 140.000000
20804, 48.000000, 428.000000, 140.000000
20805, 52.000000, 428.000000, 140.000000
20806, 56.000000, 428.000000, 140.000000
20807, 60.000000, 428.000000, 140.000000
20808, 64.000000, 428.000000, 140.000000
20809, 68.000000, 428.000000, 140.000000
20810, 72.000000, 428.000000, 140.000000
20811, 36.000000, 432.000000, 140.000000
20812, 40.000000, 432.000000, 140.000000
20813, 44.000000, 432.000000, 140.000000
20814, 48.000000, 432.000000, 140.000000
20815, 52.000000, 432.000000, 140.000000
20816, 56.000000, 432.000000, 140.000000
20817, 60.000000, 432.000000, 140.000000
20818, 64.000000, 432.000000, 140.000000
20819, 68.000000, 432.000000, 140.000000
20820, 72.000000, 432.000000, 140.000000
20821, 36.000000, 436.000000, 140.000000
20822, 40.000000, 436.000000, 140.000000
20823, 44.000000, 436.000000, 140.000000
20824, 48.000000, 436.000000, 140.000000
20825, 52.000000, 436.000000, 140.000000
20826, 56.000000, 436.000000, 140.000000
20827, 60.000000, 436.000000, 140.000000
20828, 64.000000, 436.000000, 140.000000
20829, 68.000000, 436.000000, 140.000000
20830, 72.000000, 436.000000, 140.000000
20831, 36.000000, 440.000000, 140.000000
20832, 40.000000, 440.000000, 140.000000
20833, 44.000000, 440.000000, 140.000000
20834, 48.000000, 440.000000, 140.000000
20835, 52.000000, 440.000000, 140.000000
20836, 56.000000, 440.000000, 140.000000
20837, 60.000000, 440.000000, 140.000000
20838, 64.000000, 440.000000, 140.000000
20839, 68.000000, 440.000000, 140.000000
20840, 72.000000, 440.000000, 140.000000
20841, 36.000000, 444.000000, 140.000000
20842, 40.000000, 444.000000, 140.000000
20843, 44.000000, 444.000000, 140.000000
20844, 48.000000, 444.000000, 140.000000
20845, 52.000000, 444.000000, 140.000000
20846, 56.000000, 444.000000, 140.000000
20847, 60.000000, 444.000000, 140.000000
20848, 64.000000, 444.000000, 140.000000
20849, 68.000000, 444.000000, 140.000000
20850, 72.000000, 444.000000, 140.000000
20851, 36.000000, 448.000000, 140.000000
20852, 40.000000, 448.000000, 140.000000
20853, 44.000000, 448.000000, 140.000000
20854, 48.000000, 448.000000, 140.000000
20855, 52.000000, 448.000000, 140.000000
20856, 56.000000, 448.000000, 140.000000
20857, 60.000000, 448.000000, 140.000000
20858, 64.000000, 448.000000, 140.000000
20859, 68.000000, 448.000000, 140.000000
20860, 72.000000, 448.000000, 140.000000
20861, 36.000000, 452.000000, 140.000000
20862, 40.000000, 452.000000, 140.000000
20863, 44.000000, 452.000000, 140.000000
20864, 48.000000, 452.000000, 140.000000
20865, 52.000000, 452.000000, 140.000000
20866, 56.000000, 452.000000, 140.000000
20867, 60.000000, 452.000000, 140.000000
20868, 64.000000, 452.000000, 140.000000
20869, 68.000000, 452.000000, 140.000000
20870, 72.000000, 452.000000, 140.000000
20871, 36.000000, 456.000000, 140.000000
20872, 40.000000, 456.000000, 140.000000
20873, 44.000000, 456.000000, 140.000000
20874, 48.000000, 456.000000, 140.000000
20875, 52.000000, 456.000000, 140.000000
20876, 56.000000, 456.000000, 140.000000
20877, 60.000000, 456.000000, 140.000000
20878, 64.000000, 456.000000, 140.000000
20879, 68.000000, 456.000000, 140.000000
20880, 72.000000, 456.000000, 140.000000
20881, 36.000000, 228.000000, 144.000000
20882, 40.000000, 228.000000, 144.000000
20883, 44.000000, 228.000000, 144.000000
20884, 48.000000, 228.000000, 144.000000
20885, 52.000000, 228.000000, 144.000000
20886, 56.000000, 228.000000, 144.000000
20887, 60.000000, 228.000000, 144.000000
20888, 64.000000, 228.000000, 144.000000
20889, 68.000000, 228.000000, 144.000000
20890, 72.000000, 228.000000, 144.000000
20891, 36.000000, 232.000000, 144.000000
20892, 40.000000, 232.000000, 144.000000
20893, 44.000000, 232.000000, 144.000000
20894, 48.000000, 232.000000, 144.000000
20895, 52.000000, 232.000000, 144.000000
20896, 56.000000, 232.000000, 144.000000
20897, 60.000000, 232.000000, 144.000000
20898, 64.000000, 232.000000, 144.000000
20899, 68.000000, 232.000000, 144.000000
20900, 72.000000, 232.000000, 144.000000
20901, 36.000000, 236.000000, 144.000000
20902, 40.000000, 236.000000, 144.000000
20903, 44.000000, 236.000000, 144.000000
20904, 48.000000, 236.000000, 144.000000
20905, 52.000000, 236.000000, 144.000000
20906, 56.000000, 236.000000, 144.000000
20907, 60.000000, 236.000000, 144.000000
20908, 64.000000, 236.000000, 144.000000
20909, 68.000000, 236.000000, 144.000000
20910, 72.000000, 236.000000, 144.000000
20911, 36.000000, 240.000000, 144.000000
20912, 40.000000, 240.000000, 144.000000
20913, 44.000000, 240.000000, 144.000000
20914, 48.000000, 240.000000, 144.000000
20915, 52.000000, 240.000000, 144.000000
20916, 56.000000, 240.000000, 144.000000
20917, 60.000000, 240.000000, 144.000000
20918, 64.000000, 240.000000, 144.000000
20919, 68.000000, 240.000000, 144.000000
20920, 72.000000, 240.000000, 144.000000
20921, 36.000000, 244.000000, 144.000000
20922, 40.000000, 244.000000, 144.000000
20923, 44.000000, 244.000000, 144.000000
20924, 48.000000, 244.000000, 144.000000
20925, 52.000000, 244.000000, 144.000000
20926, 56.000000, 244.000000, 144.000000
20927, 60.000000, 244.000000, 144.000000
20928, 64.000000, 244.000000, 144.000000
20929, 68.000000, 244.000000, 144.000000
20930, 72.000000, 244.000000, 144.000000
20931, 36.000000, 248.000000, 144.000000
20932, 40.000000, 248.000000, 144.000000
20933, 44.000000, 248.000000, 144.000000
20934, 48.000000, 248.000000, 144.000000
20935, 52.000000, 248.000000, 144.000000
20936, 56.000000, 248.000000, 144.000000
20937, 60.000000, 248.000000, 144.000000
20938, 64.000000, 248.000000, 144.000000
20939, 68.000000, 248.000000, 144.000000
20940, 72.000000, 248.000000, 144.000000
20941, 36.000000, 252.000000, 144.000000
20942, 40.000000, 252.000000, 144.000000
20943, 44.000000, 252.000000, 144.000000
20944, 48.000000, 252.000000, 144.000000
20945, 52.000000, 252.000000, 144.000000
20946, 56.000000, 252.000000, 144.000000
20947, 60.000000, 252.000000, 144.000000
20948, 64.000000, 252.000000, 144.000000
20949, 68.000000, 252.000000, 144.000000
20950, 72.000000, 252.000000, 144.000000
20951, 36.000000, 256.000000, 144.000000
20952, 40.000000, 256.000000, 144.000000
20953, 44.000000, 256.000000, 144.000000
20954, 48.000000, 256.000000, 144.000000
20955, 52.000000, 256.000000, 144.000000
20956, 56.000000, 256.000000, 144.000000
20957, 60.000000, 256.000000, 144.000000
20958, 64.000000, 256.000000, 144.000000
20959, 68.000000, 256.000000, 144.000000
20960, 72.000000, 256.000000, 144.000000
20961, 36.000000, 260.000000, 144.000000
20962, 40.000000, 260.000000, 144.000000
20963, 44.000000, 260.000000, 144.000000
20964, 48.000000, 260.000000, 144.000000
20965, 52.000000, 260.000000, 144.000000
20966, 56.000000, 260.000000, 144.000000
20967, 60.000000, 260.000000, 144.000000
20968, 64.000000, 260.000000, 144.000000
20969, 68.000000, 260.000000, 144.000000
20970, 72.000000, 260.000000, 144.000000
20971, 36.000000, 264.000000, 144.000000
20972, 40.000000, 264.000000, 144.000000
20973, 44.000000, 264.000000, 144.000000
20974, 48.000000, 264.000000, 144.000000
20975, 52.000000, 264.000000, 144.000000
20976, 56.000000, 264.000000, 144.000000
20977, 60.000000, 264.000000, 144.000000
20978, 64.000000, 264.000000, 144.000000
20979, 68.000000, 264.000000, 144.000000
20980, 72.000000, 264.000000, 144.000000
20981, 36.000000, 268.000000, 144.000000
20982, 40.000000, 268.000000, 144.000000
20983, 44.000000, 268.000000, 144.000000
20984, 48.000000, 268.000000, 144.000000
20985, 52.000000, 268.000000, 144.000000
20986, 56.000000, 268.000000, 144.000000
20987, 60.000000, 268.000000, 144.000000
20988, 64.000000, 268.000000, 144.000000
20989, 68.000000, 268.000000, 144.000000
20990, 72.000000, 268.000000, 144.000000
20991, 36.000000, 272.000000, 144.000000
20992, 40.000000, 272.000000, 144.000000
20993, 44.000000, 272.000000, 144.000000
20994, 48.000000, 272.000000, 144.000000
20995, 52.000000, 272.000000, 144.000000
20996, 56.000000, 272.000000, 144.000000
20997, 60.000000, 272.000000, 144.000000
20998, 64.000000, 272.000000, 144.000000
20999, 68.000000, 272.000000, 144.000000
21000, 72.000000, 272.000000, 144.000000
21001, 36.000000, 276.000000, 144.000000
21002, 40.000000, 276.000000, 144.000000
21003, 44.000000, 276.000000, 144.000000
21004, 48.000000, 276.000000, 144.000000
21005, 52.000000, 276.000000, 144.000000
21006, 56.000000, 276.000000, 144.000000
21007, 60.000000, 276.000000, 144.000000
21008, 64.000000, 276.000000, 144.000000
21009, 68.000000, 276.000000, 144.000000
21010, 72.000000, 276.000000, 144.000000
21011, 36.000000, 280.000000, 144.000000
21012, 40.000000, 280.000000, 144.000000
21013, 44.000000, 280.000000, 144.000000
21014, 48.000000, 280.000000, 144.000000
21015, 52.000000, 280.000000, 144.000000
21016, 56.000000, 280.000000, 144.000000
21017, 60.000000, 280.000000, 144.000000
21018, 64.000000, 280.000000, 144.000000
21019, 68.000000, 280.000000, 144.000000
21020, 72.000000, 280.000000, 144.000000
21021, 36.000000, 284.000000, 144.000000
21022, 40.000000, 284.000000, 144.000000
21023, 44.000000, 284.000000, 144.000000
21024, 48.000000, 284.000000, 144.000000
21025, 52.000000, 284.000000, 144.000000
21026, 56.000000, 284.000000, 144.000000
21027, 60.000000, 284.000000, 144.000000
21028, 64.000000, 284.000000, 144.000000
21029, 68.000000, 284.000000, 144.000000
21030, 72.000000, 284.000000, 144.000000
21031, 36.000000, 288.000000, 144.000000
21032, 40.000000, 288.000000, 144.000000
21033, 44.000000, 288.000000, 144.000000
21034, 48.000000, 288.000000, 144.000000
21035, 52.000000, 288.000000, 144.000000
21036, 56.000000, 288.000000, 144.000000
21037, 60.000000, 288.000000, 144.000000
21038, 64.000000, 288.000000, 144.000000
21039, 68.000000, 288.000000, 144.000000
21040, 72.000000, 288.000000, 144.000000
21041, 36.000000, 292.000000, 144.000000
21042, 40.000000, 292.000000, 144.000000
21043, 44.000000, 292.000000, 144.000000
21044, 48.000000, 292.000000, 144.000000
21045, 52.000000, 292.000000, 144.000000
21046, 56.000000, 292.000000, 144.000000
21047, 60.000000, 292.000000, 144.000000
21048, 64.000000, 292.000000, 144.000000
21049, 68.000000, 292.000000, 144.000000
21050, 72.000000, 292.000000, 144.000000
21051, 36.000000, 296.000000, 144.000000
21052, 40.000000, 296.000000, 144.000000
21053, 44.000000, 296.000000, 144.000000
21054, 48.000000, 296.000000, 144.000000
21055, 52.000000, 296.000000, 144.000000
21056, 56.000000, 296.000000, 144.000000
21057, 60.000000, 296.000000, 144.000000
21058, 64.000000, 296.000000, 144.000000
21059, 68.000000, 296.000000, 144.000000
21060, 72.000000, 296.000000, 144.000000
21061, 36.000000, 300.000000, 144.000000
21062, 40.000000, 300.000000, 144.000000
21063, 44.000000, 300.000000, 144.000000
21064, 48.000000, 300.000000, 144.000000
21065, 52.000000, 300.000000, 144.000000
21066, 56.000000, 300.000000, 144.000000
21067, 60.000000, 300.000000, 144.000000
21068, 64.000000, 300.000000, 144.000000
21069, 68.000000, 300.000000, 144.000000
21070, 72.000000, 300.000000, 144.000000
21071, 36.000000, 304.000000, 144.000000
21072, 40.000000, 304.000000, 144.000000
21073, 44.000000, 304.000000, 144.000000
21074, 48.000000, 304.000000, 144.000000
21075, 52.000000, 304.000000, 144.000000
21076, 56.000000, 304.000000, 144.000000
21077, 60.000000, 304.000000, 144.000000
21078, 64.000000, 304.000000, 144.000000
21079, 68.000000, 304.000000, 144.000000
21080, 72.000000, 304.000000, 144.000000
21081, 36.000000, 308.000000, 144.000000
21082, 40.000000, 308.000000, 144.000000
21083, 44.000000, 308.000000, 144.000000
21084, 48.000000, 308.000000, 144.000000
21085, 52.000000, 308.000000, 144.000000
21086, 56.000000, 308.000000, 144.000000
21087, 60.000000, 308.000000, 144.000000
21088, 64.000000, 308.000000, 144.000000
21089, 68.000000, 308.000000, 144.000000
21090, 72.000000, 308.000000, 144.000000
21091, 36.000000, 312.000000, 144.000000
21092, 40.000000, 312.000000, 144.000000
21093, 44.000000, 312.000000, 144.000000
21094, 48.000000, 312.000000, 144.000000
21095, 52.000000, 312.000000, 144.000000
21096, 56.000000, 312.000000, 144.000000
21097, 60.000000, 312.000000, 144.000000
21098, 64.000000, 312.000000, 144.000000
21099, 68.000000, 312.000000, 144.000000
21100, 72.000000, 312.000000, 144.000000
21101, 36.000000, 316.000000, 144.000000
21102, 40.000000, 316.000000, 144.000000
21103, 44.000000, 316.000000, 144.000000
21104, 48.000000, 316.000000, 144.000000
21105, 52.000000, 316.000000, 144.000000
21106, 56.000000, 316.000000, 144.000000
21107, 60.000000, 316.000000, 144.000000
21108, 64.000000, 316.000000, 144.000000
21109, 68.000000, 316.000000, 144.000000
21110, 72.000000, 316.000000, 144.000000
21111, 36.000000, 320.000000, 144.000000
21112, 40.000000, 320.000000, 144.000000
21113, 44.000000, 320.000000, 144.000000
21114, 48.000000, 320.000000, 144.000000
21115, 52.000000, 320.000000, 144.000000
21116, 56.000000, 320.000000, 144.000000
21117, 60.000000, 320.000000, 144.000000
21118, 64.000000, 320.000000, 144.000000
21119, 68.000000, 320.000000, 144.000000
21120, 72.000000, 320.000000, 144.000000
21121, 36.000000, 324.000000, 144.000000
21122, 40.000000, 324.000000, 144.000000
21123, 44.000000, 324.000000, 144.000000
21124, 48.000000, 324.000000, 144.000000
21125, 52.000000, 324.000000, 144.000000
21126, 56.000000, 324.000000, 144.000000
21127, 60.000000, 324.000000, 144.000000
21128, 64.000000, 324.000000, 144.000000
21129, 68.000000, 324.000000, 144.000000
21130, 72.000000, 324.000000, 144.000000
21131, 36.000000, 328.000000, 144.000000
21132, 40.000000, 328.000000, 144.000000
21133, 44.000000, 328.000000, 144.000000
21134, 48.000000, 328.000000, 144.000000
21135, 52.000000, 328.000000, 144.000000
21136, 56.000000, 328.000000, 144.000000
21137, 60.000000, 328.000000, 144.000000
21138, 64.000000, 328.000000, 144.000000
21139, 68.000000, 328.000000, 144.000000
21140, 72.000000, 328.000000, 144.000000
21141, 36.000000, 332.000000, 144.000000
21142, 40.000000, 332.000000, 144.000000
21143, 44.000000, 332.000000, 144.000000
21144, 48.000000, 332.000000, 144.000000
21145, 52.000000, 332.000000, 144.000000
21146, 56.000000, 332.000000, 144.000000
21147, 60.000000, 332.000000, 144.000000
21148, 64.000000, 332.000000, 144.000000
21149, 68.000000, 332.000000, 144.000000
21150, 72.000000, 332.000000, 144.000000
21151, 36.000000, 336.000000, 144.000000
21152, 40.000000, 336.000000, 144.000000
21153, 44.000000, 336.000000, 144.000000
21154, 48.000000, 336.000000, 144.000000
21155, 52.000000, 336.000000, 144.000000
21156, 56.000000, 336.000000, 144.000000
21157, 60.000000, 336.000000, 144.000000
21158, 64.000000, 336.000000, 144.000000
21159, 68.000000, 336.000000, 144.000000
21160, 72.000000, 336.000000, 144.000000
21161, 36.000000, 340.000000, 144.000000
21162, 40.000000, 340.000000, 144.000000
21163, 44.000000, 340.000000, 144.000000
21164, 48.000000, 340.000000, 144.000000
21165, 52.000000, 340.000000, 144.000000
21166, 56.000000, 340.000000, 144.000000
21167, 60.000000, 340.000000, 144.000000
21168, 64.000000, 340.000000, 144.000000
21169, 68.000000, 340.000000, 144.000000
21170, 72.000000, 340.000000, 144.000000
21171, 36.000000, 344.000000, 144.000000
21172, 40.000000, 344.000000, 144.000000
21173, 44.000000, 344.000000, 144.000000
21174, 48.000000, 344.000000, 144.000000
21175, 52.000000, 344.000000, 144.000000
21176, 56.000000, 344.000000, 144.000000
21177, 60.000000, 344.000000, 144.000000
21178, 64.000000, 344.000000, 144.000000
21179, 68.000000, 344.000000, 144.000000
21180, 72.000000, 344.000000, 144.000000
21181, 36.000000, 348.000000, 144.000000
21182, 40.000000, 348.000000, 144.000000
21183, 44.000000, 348.000000, 144.000000
21184, 48.000000, 348.000000, 144.000000
21185, 52.000000, 348.000000, 144.000000
21186, 56.000000, 348.000000, 144.000000
21187, 60.000000, 348.000000, 144.000000
21188, 64.000000, 348.000000, 144.000000
21189, 68.000000, 348.000000, 144.000000
21190, 72.000000, 348.000000, 144.000000
21191, 36.000000, 352.000000, 144.000000
21192, 40.000000, 352.000000, 144.000000
21193, 44.000000, 352.000000, 144.000000
21194, 48.000000, 352.000000, 144.000000
21195, 52.000000, 352.000000, 144.000000
21196, 56.000000, 352.000000, 144.000000
21197, 60.000000, 352.000000, 144.000000
21198, 64.000000, 352.000000, 144.000000
21199, 68.000000, 352.000000, 144.000000
21200, 72.000000, 352.000000, 144.000000
21201, 36.000000, 356.000000, 144.000000
21202, 40.000000, 356.000000, 144.000000
21203, 44.000000, 356.000000, 144.000000
21204, 48.000000, 356.000000, 144.000000
21205, 52.000000, 356.000000, 144.000000
21206, 56.000000, 356.000000, 144.000000
21207, 60.000000, 356.000000, 144.000000
21208, 64.000000, 356.000000, 144.000000
21209, 68.000000, 356.000000, 144.000000
21210, 72.000000, 356.000000, 144.000000
21211, 36.000000, 360.000000, 144.000000
21212, 40.000000, 360.000000, 144.000000
21213, 44.000000, 360.000000, 144.000000
21214, 48.000000, 360.000000, 144.000000
21215, 52.000000, 360.000000, 144.000000
21216, 56.000000, 360.000000, 144.000000
21217, 60.000000, 360.000000, 144.000000
21218, 64.000000, 360.000000, 144.000000
21219, 68.000000, 360.000000, 144.000000
21220, 72.000000, 360.000000, 144.000000
21221, 36.000000, 364.000000, 144.000000
21222, 40.000000, 364.000000, 144.000000
21223, 44.000000, 364.000000, 144.000000
21224, 48.000000, 364.000000, 144.000000
21225, 52.000000, 364.000000, 144.000000
21226, 56.000000, 364.000000, 144.000000
21227, 60.000000, 364.000000, 144.000000
21228, 64.000000, 364.000000, 144.000000
21229, 68.000000, 364.000000, 144.000000
21230, 72.000000, 364.000000, 144.000000
21231, 36.000000, 368.000000, 144.000000
21232, 40.000000, 368.000000, 144.000000
21233, 44.000000, 368.000000, 144.000000
21234, 48.000000, 368.000000, 144.000000
21235, 52.000000, 368.000000, 144.000000
21236, 56.000000, 368.000000, 144.000000
21237, 60.000000, 368.000000, 144.000000
21238, 64.000000, 368.000000, 144.000000
21239, 68.000000, 368.000000, 144.000000
21240, 72.000000, 368.000000, 144.000000
21241, 36.000000, 372.000000, 144.000000
21242, 40.000000, 372.000000, 144.000000
21243, 44.000000, 372.000000, 144.000000
21244, 48.000000, 372.000000, 144.000000
21245, 52.000000, 372.000000, 144.000000
21246, 56.000000, 372.000000, 144.000000
21247, 60.000000, 372.000000, 144.000000
21248, 64.000000, 372.000000, 144.000000
21249, 68.000000, 372.000000, 144.000000
21250, 72.000000, 372.000000, 144.000000
21251, 36.000000, 376.000000, 144.000000
21252, 40.000000, 376.000000, 144.000000
21253, 44.000000, 376.000000, 144.000000
21254, 48.000000, 376.000000, 144.000000
21255, 52.000000, 376.000000, 144.000000
21256, 56.000000, 376.000000, 144.000000
21257, 60.000000, 376.000000, 144.000000
21258, 64.000000, 376.000000, 144.000000
21259, 68.000000, 376.000000, 144.000000
21260, 72.000000, 376.000000, 144.000000
21261, 36.000000, 380.000000, 144.000000
21262, 40.000000, 380.000000, 144.000000
21263, 44.000000, 380.000000, 144.000000
21264, 48.000000, 380.000000, 144.000000
21265, 52.000000, 380.000000, 144.000000
21266, 56.000000, 380.000000, 144.000000
21267, 60.000000, 380.000000, 144.000000
21268, 64.000000, 380.000000, 144.000000
21269, 68.000000, 380.000000, 144.000000
21270, 72.000000, 380.000000, 144.000000
21271, 36.000000, 384.000000, 144.000000
21272, 40.000000, 384.000000, 144.000000
21273, 44.000000, 384.000000, 144.000000
21274, 48.000000, 384.000000, 144.000000
21275, 52.000000, 384.000000, 144.000000
21276, 56.000000, 384.000000, 144.000000
21277, 60.000000, 384.000000, 144.000000
21278, 64.000000, 384.000000, 144.000000
21279, 68.000000, 384.000000, 144.000000
21280, 72.000000, 384.000000, 144.000000
21281, 36.000000, 388.000000, 144.000000
21282, 40.000000, 388.000000, 144.000000
21283, 44.000000, 388.000000, 144.000000
21284, 48.000000, 388.000000, 144.000000
21285, 52.000000, 388.000000, 144.000000
21286, 56.000000, 388.000000, 144.000000
21287, 60.000000, 388.000000, 144.000000
21288, 64.000000, 388.000000, 144.000000
21289, 68.000000, 388.000000, 144.000000
21290, 72.000000, 388.000000, 144.000000
21291, 36.000000, 392.000000, 144.000000
21292, 40.000000, 392.000000, 144.000000
21293, 44.000000, 392.000000, 144.000000
21294, 48.000000, 392.000000, 144.000000
21295, 52.000000, 392.000000, 144.000000
21296, 56.000000, 392.000000, 144.000000
21297, 60.000000, 392.000000, 144.000000
21298, 64.000000, 392.000000, 144.000000
21299, 68.000000, 392.000000, 144.000000
21300, 72.000000, 392.000000, 144.000000
21301, 36.000000, 396.000000, 144.000000
21302, 40.000000, 396.000000, 144.000000
21303, 44.000000, 396.000000, 144.000000
21304, 48.000000, 396.000000, 144.000000
21305, 52.000000, 396.000000, 144.000000
21306, 56.000000, 396.000000, 144.000000
21307, 60.000000, 396.000000, 144.000000
21308, 64.000000, 396.000000, 144.000000
21309, 68.000000, 396.000000, 144.000000
21310, 72.000000, 396.000000, 144.000000
21311, 36.000000, 400.000000, 144.000000
21312, 40.000000, 400.000000, 144.000000
21313, 44.000000, 400.000000, 144.000000
21314, 48.000000, 400.000000, 144.000000
21315, 52.000000, 400.000000, 144.000000
21316, 56.000000, 400.000000, 144.000000
21317, 60.000000, 400.000000, 144.000000
21318, 64.000000, 400.000000, 144.000000
21319, 68.000000, 400.000000, 144.000000
21320, 72.000000, 400.000000, 144.000000
21321, 36.000000, 404.000000, 144.000000
21322, 40.000000, 404.000000, 144.000000
21323, 44.000000, 404.000000, 144.000000
21324, 48.000000, 404.000000, 144.000000
21325, 52.000000, 404.000000, 144.000000
21326, 56.000000, 404.000000, 144.000000
21327, 60.000000, 404.000000, 144.000000
21328, 64.000000, 404.000000, 144.000000
21329, 68.000000, 404.000000, 144.000000
21330, 72.000000, 404.000000, 144.000000
21331, 36.000000, 408.000000, 144.000000
21332, 40.000000, 408.000000, 144.000000
21333, 44.000000, 408.000000, 144.000000
21334, 48.000000, 408.000000, 144.000000
21335, 52.000000, 408.000000, 144.000000
21336, 56.000000, 408.000000, 144.000000
21337, 60.000000, 408.000000, 144.000000
21338, 64.000000, 408.000000, 144.000000
21339, 68.000000, 408.000000, 144.000000
21340, 72.000000, 408.000000, 144.000000
21341, 36.000000, 412.000000, 144.000000
21342, 40.000000, 412.000000, 144.000000
21343, 44.000000, 412.000000, 144.000000
21344, 48.000000, 412.000000, 144.000000
21345, 52.000000, 412.000000, 144.000000
21346, 56.000000, 412.000000, 144.000000
21347, 60.000000, 412.000000, 144.000000
21348, 64.000000, 412.000000, 144.000000
21349, 68.000000, 412.000000, 144.000000
21350, 72.000000, 412.000000, 144.000000
21351, 36.000000, 416.000000, 144.000000
21352, 40.000000, 416.000000, 144.000000
21353, 44.000000, 416.000000, 144.000000
21354, 48.000000, 416.000000, 144.000000
21355, 52.000000, 416.000000, 144.000000
21356, 56.000000, 416.000000, 144.000000
21357, 60.000000, 416.000000, 144.000000
21358, 64.000000, 416.000000, 144.000000
21359, 68.000000, 416.000000, 144.000000
21360, 72.000000, 416.000000, 144.000000
21361, 36.000000, 420.000000, 144.000000
21362, 40.000000, 420.000000, 144.000000
21363, 44.000000, 420.000000, 144.000000
21364, 48.000000, 420.000000, 144.000000
21365, 52.000000, 420.000000, 144.000000
21366, 56.000000, 420.000000, 144.000000
21367, 60.000000, 420.000000, 144.000000
21368, 64.000000, 420.000000, 144.000000
21369, 68.000000, 420.000000, 144.000000
21370, 72.000000, 420.000000, 144.000000
21371, 36.000000, 424.000000, 144.000000
21372, 40.000000, 424.000000, 144.000000
21373, 44.000000, 424.000000, 144.000000
21374, 48.000000, 424.000000, 144.000000
21375, 52.000000, 424.000000, 144.000000
21376, 56.000000, 424.000000, 144.000000
21377, 60.000000, 424.000000, 144.000000
21378, 64.000000, 424.000000, 144.000000
21379, 68.000000, 424.000000, 144.000000
21380, 72.000000, 424.000000, 144.000000
21381, 36.000000, 428.000000, 144.000000
21382, 40.000000, 428.000000, 144.000000
21383, 44.000000, 428.000000, 144.000000
21384, 48.000000, 428.000000, 144.000000
21385, 52.000000, 428.000000, 144.000000
21386, 56.000000, 428.000000, 144.000000
21387, 60.000000, 428.000000, 144.000000
21388, 64.000000, 428.000000, 144.000000
21389, 68.000000, 428.000000, 144.000000
21390, 72.000000, 428.000000, 144.000000
21391, 36.000000, 432.000000, 144.000000
21392, 40.000000, 432.000000, 144.000000
21393, 44.000000, 432.000000, 144.000000
21394, 48.000000, 432.000000, 144.000000
21395, 52.000000, 432.000000, 144.000000
21396, 56.000000, 432.000000, 144.000000
21397, 60.000000, 432.000000, 144.000000
21398, 64.000000, 432.000000, 144.000000
21399, 68.000000, 432.000000, 144.000000
21400, 72.000000, 432.000000, 144.000000
21401, 36.000000, 436.000000, 144.000000
21402, 40.000000, 436.000000, 144.000000
21403, 44.000000, 436.000000, 144.000000
21404, 48.000000, 436.000000, 144.000000
21405, 52.000000, 436.000000, 144.000000
21406, 56.000000, 436.000000, 144.000000
21407, 60.000000, 436.000000, 144.000000
21408, 64.000000, 436.000000, 144.000000
21409, 68.000000, 436.000000, 144.000000
21410, 72.000000, 436.000000, 144.000000
21411, 36.000000, 440.000000, 144.000000
21412, 40.000000, 440.000000, 144.000000
21413, 44.000000, 440.000000, 144.000000
21414, 48.000000, 440.000000, 144.000000
21415, 52.000000, 440.000000, 144.000000
21416, 56.000000, 440.000000, 144.000000
21417, 60.000000, 440.000000, 144.000000
21418, 64.000000, 440.000000, 144.000000
21419, 68.000000, 440.000000, 144.000000
21420, 72.000000, 440.000000, 144.000000
21421, 36.000000, 444.000000, 144.000000
21422, 40.000000, 444.000000, 144.000000
21423, 44.000000, 444.000000, 144.000000
21424, 48.000000, 444.000000, 144.000000
21425, 52.000000, 444.000000, 144.000000
21426, 56.000000, 444.000000, 144.000000
21427, 60.000000, 444.000000, 144.000000
21428, 64.000000, 444.000000, 144.000000
21429, 68.000000, 444.000000, 144.000000
21430, 72.000000, 444.000000, 144.000000
21431, 36.000000, 448.000000, 144.000000
21432, 40.000000, 448.000000, 144.000000
21433, 44.000000, 448.000000, 144.000000
21434, 48.000000, 448.000000, 144.000000
21435, 52.000000, 448.000000, 144.000000
21436, 56.000000, 448.000000, 144.000000
21437, 60.000000, 448.000000, 144.000000
21438, 64.000000, 448.000000, 144.000000
21439, 68.000000, 448.000000, 144.000000
21440, 72.000000, 448.000000, 144.000000
21441, 36.000000, 452.000000, 144.000000
21442, 40.000000, 452.000000, 144.000000
21443, 44.000000, 452.000000, 144.000000
21444, 48.000000, 452.000000, 144.000000
21445, 52.000000, 452.000000, 144.000000
21446, 56.000000, 452.000000, 144.000000
21447, 60.000000, 452.000000, 144.000000
21448, 64.000000, 452.000000, 144.000000
21449, 68.000000, 452.000000, 144.000000
21450, 72.000000, 452.000000, 144.000000
21451, 36.000000, 456.000000, 144.000000
21452, 40.000000, 456.000000, 144.000000
21453, 44.000000, 456.000000, 144.000000
21454, 48.000000, 456.000000, 144.000000
21455, 52.000000, 456.000000, 144.000000
21456, 56.000000, 456.000000, 144.000000
21457, 60.000000, 456.000000, 144.000000
21458, 64.000000, 456.000000, 144.000000
21459, 68.000000, 456.000000, 144.000000
21460, 72.000000, 456.000000, 144.000000
21461, 36.000000, 228.000000, 148.000000
21462, 40.000000, 228.000000, 148.000000
21463, 44.000000, 228.000000, 148.000000
21464, 48.000000, 228.000000, 148.000000
21465, 52.000000, 228.000000, 148.000000
21466, 56.000000, 228.000000, 148.000000
21467, 60.000000, 228.000000, 148.000000
21468, 64.000000, 228.000000, 148.000000
21469, 68.000000, 228.000000, 148.000000
21470, 72.000000, 228.000000, 148.000000
21471, 36.000000, 232.000000, 148.000000
21472, 40.000000, 232.000000, 148.000000
21473, 44.000000, 232.000000, 148.000000
21474, 48.000000, 232.000000, 148.000000
21475, 52.000000, 232.000000, 148.000000
21476, 56.000000, 232.000000, 148.000000
21477, 60.000000, 232.000000, 148.000000
21478, 64.000000, 232.000000, 148.000000
21479, 68.000000, 232.000000, 148.000000
21480, 72.000000, 232.000000, 148.000000
21481, 36.000000, 236.000000, 148.000000
21482, 40.000000, 236.000000, 148.000000
21483, 44.000000, 236.000000, 148.000000
21484, 48.000000, 236.000000, 148.000000
21485, 52.000000, 236.000000, 148.000000
21486, 56.000000, 236.000000, 148.000000
21487, 60.000000, 236.000000, 148.000000
21488, 64.000000, 236.000000, 148.000000
21489, 68.000000, 236.000000, 148.000000
21490, 72.000000, 236.000000, 148.000000
21491, 36.000000, 240.000000, 148.000000
21492, 40.000000, 240.000000, 148.000000
21493, 44.000000, 240.000000, 148.000000
21494, 48.000000, 240.000000, 148.000000
21495, 52.000000, 240.000000, 148.000000
21496, 56.000000, 240.000000, 148.000000
21497, 60.000000, 240.000000, 148.000000
21498, 64.000000, 240.000000, 148.000000
21499, 68.000000, 240.000000, 148.000000
21500, 72.000000, 240.000000, 148.000000
21501, 36.000000, 244.000000, 148.000000
21502, 40.000000, 244.000000, 148.000000
21503, 44.000000, 244.000000, 148.000000
21504, 48.000000, 244.000000, 148.000000
21505, 52.000000, 244.000000, 148.000000
21506, 56.000000, 244.000000, 148.000000
21507, 60.000000, 244.000000, 148.000000
21508, 64.000000, 244.000000, 148.000000
21509, 68.000000, 244.000000, 148.000000
21510, 72.000000, 244.000000, 148.000000
21511, 36.000000, 248.000000, 148.000000
21512, 40.000000, 248.000000, 148.000000
21513, 44.000000, 248.000000, 148.000000
21514, 48.000000, 248.000000, 148.000000
21515, 52.000000, 248.000000, 148.000000
21516, 56.000000, 248.000000, 148.000000
21517, 60.000000, 248.000000, 148.000000
21518, 64.000000, 248.000000, 148.000000
21519, 68.000000, 248.000000, 148.000000
21520, 72.000000, 248.000000, 148.000000
21521, 36.000000, 252.000000, 148.000000
21522, 40.000000, 252.000000, 148.000000
21523, 44.000000, 252.000000, 148.000000
21524, 48.000000, 252.000000, 148.000000
21525, 52.000000, 252.000000, 148.000000
21526, 56.000000, 252.000000, 148.000000
21527, 60.000000, 252.000000, 148.000000
21528, 64.000000, 252.000000, 148.000000
21529, 68.000000, 252.000000, 148.000000
21530, 72.000000, 252.000000, 148.000000
21531, 36.000000, 256.000000, 148.000000
21532, 40.000000, 256.000000, 148.000000
21533, 44.000000, 256.000000, 148.000000
21534, 48.000000, 256.000000, 148.000000
21535, 52.000000, 256.000000, 148.000000
21536, 56.000000, 256.000000, 148.000000
21537, 60.000000, 256.000000, 148.000000
21538, 64.000000, 256.000000, 148.000000
21539, 68.000000, 256.000000, 148.000000
21540, 72.000000, 256.000000, 148.000000
21541, 36.000000, 260.000000, 148.000000
21542, 40.000000, 260.000000, 148.000000
21543, 44.000000, 260.000000, 148.000000
21544, 48.000000, 260.000000, 148.000000
21545, 52.000000, 260.000000, 148.000000
21546, 56.000000, 260.000000, 148.000000
21547, 60.000000, 260.000000, 148.000000
21548, 64.000000, 260.000000, 148.000000
21549, 68.000000, 260.000000, 148.000000
21550, 72.000000, 260.000000, 148.000000
21551, 36.000000, 264.000000, 148.000000
21552, 40.000000, 264.000000, 148.000000
21553, 44.000000, 264.000000, 148.000000
21554, 48.000000, 264.000000, 148.000000
21555, 52.000000, 264.000000, 148.000000
21556, 56.000000, 264.000000, 148.000000
21557, 60.000000, 264.000000, 148.000000
21558, 64.000000, 264.000000, 148.000000
21559, 68.000000, 264.000000, 148.000000
21560, 72.000000, 264.000000, 148.000000
21561, 36.000000, 268.000000, 148.000000
21562, 40.000000, 268.000000, 148.000000
21563, 44.000000, 268.000000, 148.000000
21564, 48.000000, 268.000000, 148.000000
21565, 52.000000, 268.000000, 148.000000
21566, 56.000000, 268.000000, 148.000000
21567, 60.000000, 268.000000, 148.000000
21568, 64.000000, 268.000000, 148.000000
21569, 68.000000, 268.000000, 148.000000
21570, 72.000000, 268.000000, 148.000000
21571, 36.000000, 272.000000, 148.000000
21572, 40.000000, 272.000000, 148.000000
21573, 44.000000, 272.000000, 148.000000
21574, 48.000000, 272.000000, 148.000000
21575, 52.000000, 272.000000, 148.000000
21576, 56.000000, 272.000000, 148.000000
21577, 60.000000, 272.000000, 148.000000
21578, 64.000000, 272.000000, 148.000000
21579, 68.000000, 272.000000, 148.000000
21580, 72.000000, 272.000000, 148.000000
21581, 36.000000, 276.000000, 148.000000
21582, 40.000000, 276.000000, 148.000000
21583, 44.000000, 276.000000, 148.000000
21584, 48.000000, 276.000000, 148.000000
21585, 52.000000, 276.000000, 148.000000
21586, 56.000000, 276.000000, 148.000000
21587, 60.000000, 276.000000, 148.000000
21588, 64.000000, 276.000000, 148.000000
21589, 68.000000, 276.000000, 148.000000
21590, 72.000000, 276.000000, 148.000000
21591, 36.000000, 280.000000, 148.000000
21592, 40.000000, 280.000000, 148.000000
21593, 44.000000, 280.000000, 148.000000
21594, 48.000000, 280.000000, 148.000000
21595, 52.000000, 280.000000, 148.000000
21596, 56.000000, 280.000000, 148.000000
21597, 60.000000, 280.000000, 148.000000
21598, 64.000000, 280.000000, 148.000000
21599, 68.000000, 280.000000, 148.000000
21600, 72.000000, 280.000000, 148.000000
21601, 36.000000, 284.000000, 148.000000
21602, 40.000000, 284.000000, 148.000000
21603, 44.000000, 284.000000, 148.000000
21604, 48.000000, 284.000000, 148.000000
21605, 52.000000, 284.000000, 148.000000
21606, 56.000000, 284.000000, 148.000000
21607, 60.000000, 284.000000, 148.000000
21608, 64.000000, 284.000000, 148.000000
21609, 68.000000, 284.000000, 148.000000
21610, 72.000000, 284.000000, 148.000000
21611, 36.000000, 288.000000, 148.000000
21612, 40.000000, 288.000000, 148.000000
21613, 44.000000, 288.000000, 148.000000
21614, 48.000000, 288.000000, 148.000000
21615, 52.000000, 288.000000, 148.000000
21616, 56.000000, 288.000000, 148.000000
21617, 60.000000, 288.000000, 148.000000
21618, 64.000000, 288.000000, 148.000000
21619, 68.000000, 288.000000, 148.000000
21620, 72.000000, 288.000000, 148.000000
21621, 36.000000, 292.000000, 148.000000
21622, 40.000000, 292.000000, 148.000000
21623, 44.000000, 292.000000, 148.000000
21624, 48.000000, 292.000000, 148.000000
21625, 52.000000, 292.000000, 148.000000
21626, 56.000000, 292.000000, 148.000000
21627, 60.000000, 292.000000, 148.000000
21628, 64.000000, 292.000000, 148.000000
21629, 68.000000, 292.000000, 148.000000
21630, 72.000000, 292.000000, 148.000000
21631, 36.000000, 296.000000, 148.000000
21632, 40.000000, 296.000000, 148.000000
21633, 44.000000, 296.000000, 148.000000
21634, 48.000000, 296.000000, 148.000000
21635, 52.000000, 296.000000, 148.000000
21636, 56.000000, 296.000000, 148.000000
21637, 60.000000, 296.000000, 148.000000
21638, 64.000000, 296.000000, 148.000000
21639, 68.000000, 296.000000, 148.000000
21640, 72.000000, 296.000000, 148.000000
21641, 36.000000, 300.000000, 148.000000
21642, 40.000000, 300.000000, 148.000000
21643, 44.000000, 300.000000, 148.000000
21644, 48.000000, 300.000000, 148.000000
21645, 52.000000, 300.000000, 148.000000
21646, 56.000000, 300.000000, 148.000000
21647, 60.000000, 300.000000, 148.000000
21648, 64.000000, 300.000000, 148.000000
21649, 68.000000, 300.000000, 148.000000
21650, 72.000000, 300.000000, 148.000000
21651, 36.000000, 304.000000, 148.000000
21652, 40.000000, 304.000000, 148.000000
21653, 44.000000, 304.000000, 148.000000
21654, 48.000000, 304.000000, 148.000000
21655, 52.000000, 304.000000, 148.000000
21656, 56.000000, 304.000000, 148.000000
21657, 60.000000, 304.000000, 148.000000
21658, 64.000000, 304.000000, 148.000000
21659, 68.000000, 304.000000, 148.000000
21660, 72.000000, 304.000000, 148.000000
21661, 36.000000, 308.000000, 148.000000
21662, 40.000000, 308.000000, 148.000000
21663, 44.000000, 308.000000, 148.000000
21664, 48.000000, 308.000000, 148.000000
21665, 52.000000, 308.000000, 148.000000
21666, 56.000000, 308.000000, 148.000000
21667, 60.000000, 308.000000, 148.000000
21668, 64.000000, 308.000000, 148.000000
21669, 68.000000, 308.000000, 148.000000
21670, 72.000000, 308.000000, 148.000000
21671, 36.000000, 312.000000, 148.000000
21672, 40.000000, 312.000000, 148.000000
21673, 44.000000, 312.000000, 148.000000
21674, 48.000000, 312.000000, 148.000000
21675, 52.000000, 312.000000, 148.000000
21676, 56.000000, 312.000000, 148.000000
21677, 60.000000, 312.000000, 148.000000
21678, 64.000000, 312.000000, 148.000000
21679, 68.000000, 312.000000, 148.000000
21680, 72.000000, 312.000000, 148.000000
21681, 36.000000, 316.000000, 148.000000
21682, 40.000000, 316.000000, 148.000000
21683, 44.000000, 316.000000, 148.000000
21684, 48.000000, 316.000000, 148.000000
21685, 52.000000, 316.000000, 148.000000
21686, 56.000000, 316.000000, 148.000000
21687, 60.000000, 316.000000, 148.000000
21688, 64.000000, 316.000000, 148.000000
21689, 68.000000, 316.000000, 148.000000
21690, 72.000000, 316.000000, 148.000000
21691, 36.000000, 320.000000, 148.000000
21692, 40.000000, 320.000000, 148.000000
21693, 44.000000, 320.000000, 148.000000
21694, 48.000000, 320.000000, 148.000000
21695, 52.000000, 320.000000, 148.000000
21696, 56.000000, 320.000000, 148.000000
21697, 60.000000, 320.000000, 148.000000
21698, 64.000000, 320.000000, 148.000000
21699, 68.000000, 320.000000, 148.000000
21700, 72.000000, 320.000000, 148.000000
21701, 36.000000, 324.000000, 148.000000
21702, 40.000000, 324.000000, 148.000000
21703, 44.000000, 324.000000, 148.000000
21704, 48.000000, 324.000000, 148.000000
21705, 52.000000, 324.000000, 148.000000
21706, 56.000000, 324.000000, 148.000000
21707, 60.000000, 324.000000, 148.000000
21708, 64.000000, 324.000000, 148.000000
21709, 68.000000, 324.000000, 148.000000
21710, 72.000000, 324.000000, 148.000000
21711, 36.000000, 328.000000, 148.000000
21712, 40.000000, 328.000000, 148.000000
21713, 44.000000, 328.000000, 148.000000
21714, 48.000000, 328.000000, 148.000000
21715, 52.000000, 328.000000, 148.000000
21716, 56.000000, 328.000000, 148.000000
21717, 60.000000, 328.000000, 148.000000
21718, 64.000000, 328.000000, 148.000000
21719, 68.000000, 328.000000, 148.000000
21720, 72.000000, 328.000000, 148.000000
21721, 36.000000, 332.000000, 148.000000
21722, 40.000000, 332.000000, 148.000000
21723, 44.000000, 332.000000, 148.000000
21724, 48.000000, 332.000000, 148.000000
21725, 52.000000, 332.000000, 148.000000
21726, 56.000000, 332.000000, 148.000000
21727, 60.000000, 332.000000, 148.000000
21728, 64.000000, 332.000000, 148.000000
21729, 68.000000, 332.000000, 148.000000
21730, 72.000000, 332.000000, 148.000000
21731, 36.000000, 336.000000, 148.000000
21732, 40.000000, 336.000000, 148.000000
21733, 44.000000, 336.000000, 148.000000
21734, 48.000000, 336.000000, 148.000000
21735, 52.000000, 336.000000, 148.000000
21736, 56.000000, 336.000000, 148.000000
21737, 60.000000, 336.000000, 148.000000
21738, 64.000000, 336.000000, 148.000000
21739, 68.000000, 336.000000, 148.000000
21740, 72.000000, 336.000000, 148.000000
21741, 36.000000, 340.000000, 148.000000
21742, 40.000000, 340.000000, 148.000000
21743, 44.000000, 340.000000, 148.000000
21744, 48.000000, 340.000000, 148.000000
21745, 52.000000, 340.000000, 148.000000
21746, 56.000000, 340.000000, 148.000000
21747, 60.000000, 340.000000, 148.000000
21748, 64.000000, 340.000000, 148.000000
21749, 68.000000, 340.000000, 148.000000
21750, 72.000000, 340.000000, 148.000000
21751, 36.000000, 344.000000, 148.000000
21752, 40.000000, 344.000000, 148.000000
21753, 44.000000, 344.000000, 148.000000
21754, 48.000000, 344.000000, 148.000000
21755, 52.000000, 344.000000, 148.000000
21756, 56.000000, 344.000000, 148.000000
21757, 60.000000, 344.000000, 148.000000
21758, 64.000000, 344.000000, 148.000000
21759, 68.000000, 344.000000, 148.000000
21760, 72.000000, 344.000000, 148.000000
21761, 36.000000, 348.000000, 148.000000
21762, 40.000000, 348.000000, 148.000000
21763, 44.000000, 348.000000, 148.000000
21764, 48.000000, 348.000000, 148.000000
21765, 52.000000, 348.000000, 148.000000
21766, 56.000000, 348.000000, 148.000000
21767, 60.000000, 348.000000, 148.000000
21768, 64.000000, 348.000000, 148.000000
21769, 68.000000, 348.000000, 148.000000
21770, 72.000000, 348.000000, 148.000000
21771, 36.000000, 352.000000, 148.000000
21772, 40.000000, 352.000000, 148.000000
21773, 44.000000, 352.000000, 148.000000
21774, 48.000000, 352.000000, 148.000000
21775, 52.000000, 352.000000, 148.000000
21776, 56.000000, 352.000000, 148.000000
21777, 60.000000, 352.000000, 148.000000
21778, 64.000000, 352.000000, 148.000000
21779, 68.000000, 352.000000, 148.000000
21780, 72.000000, 352.000000, 148.000000
21781, 36.000000, 356.000000, 148.000000
21782, 40.000000, 356.000000, 148.000000
21783, 44.000000, 356.000000, 148.000000
21784, 48.000000, 356.000000, 148.000000
21785, 52.000000, 356.000000, 148.000000
21786, 56.000000, 356.000000, 148.000000
21787, 60.000000, 356.000000, 148.000000
21788, 64.000000, 356.000000, 148.000000
21789, 68.000000, 356.000000, 148.000000
21790, 72.000000, 356.000000, 148.000000
21791, 36.000000, 360.000000, 148.000000
21792, 40.000000, 360.000000, 148.000000
21793, 44.000000, 360.000000, 148.000000
21794, 48.000000, 360.000000, 148.000000
21795, 52.000000, 360.000000, 148.000000
21796, 56.000000, 360.000000, 148.000000
21797, 60.000000, 360.000000, 148.000000
21798, 64.000000, 360.000000, 148.000000
21799, 68.000000, 360.000000, 148.000000
21800, 72.000000, 360.000000, 148.000000
21801, 36.000000, 364.000000, 148.000000
21802, 40.000000, 364.000000, 148.000000
21803, 44.000000, 364.000000, 148.000000
21804, 48.000000, 364.000000, 148.000000
21805, 52.000000, 364.000000, 148.000000
21806, 56.000000, 364.000000, 148.000000
21807, 60.000000, 364.000000, 148.000000
21808, 64.000000, 364.000000, 148.000000
21809, 68.000000, 364.000000, 148.000000
21810, 72.000000, 364.000000, 148.000000
21811, 36.000000, 368.000000, 148.000000
21812, 40.000000, 368.000000, 148.000000
21813, 44.000000, 368.000000, 148.000000
21814, 48.000000, 368.000000, 148.000000
21815, 52.000000, 368.000000, 148.000000
21816, 56.000000, 368.000000, 148.000000
21817, 60.000000, 368.000000, 148.000000
21818, 64.000000, 368.000000, 148.000000
21819, 68.000000, 368.000000, 148.000000
21820, 72.000000, 368.000000, 148.000000
21821, 36.000000, 372.000000, 148.000000
21822, 40.000000, 372.000000, 148.000000
21823, 44.000000, 372.000000, 148.000000
21824, 48.000000, 372.000000, 148.000000
21825, 52.000000, 372.000000, 148.000000
21826, 56.000000, 372.000000, 148.000000
21827, 60.000000, 372.000000, 148.000000
21828, 64.000000, 372.000000, 148.000000
21829, 68.000000, 372.000000, 148.000000
21830, 72.000000, 372.000000, 148.000000
21831, 36.000000, 376.000000, 148.000000
21832, 40.000000, 376.000000, 148.000000
21833, 44.000000, 376.000000, 148.000000
21834, 48.000000, 376.000000, 148.000000
21835, 52.000000, 376.000000, 148.000000
21836, 56.000000, 376.000000, 148.000000
21837, 60.000000, 376.000000, 148.000000
21838, 64.000000, 376.000000, 148.000000
21839, 68.000000, 376.000000, 148.000000
21840, 72.000000, 376.000000, 148.000000
21841, 36.000000, 380.000000, 148.000000
21842, 40.000000, 380.000000, 148.000000
21843, 44.000000, 380.000000, 148.000000
21844, 48.000000, 380.000000, 148.000000
21845, 52.000000, 380.000000, 148.000000
21846, 56.000000, 380.000000, 148.000000
21847, 60.000000, 380.000000, 148.000000
21848, 64.000000, 380.000000, 148.000000
21849, 68.000000, 380.000000, 148.000000
21850, 72.000000, 380.000000, 148.000000
21851, 36.000000, 384.000000, 148.000000
21852, 40.000000, 384.000000, 148.000000
21853, 44.000000, 384.000000, 148.000000
21854, 48.000000, 384.000000, 148.000000
21855, 52.000000, 384.000000, 148.000000
21856, 56.000000, 384.000000, 148.000000
21857, 60.000000, 384.000000, 148.000000
21858, 64.000000, 384.000000, 148.000000
21859, 68.000000, 384.000000, 148.000000
21860, 72.000000, 384.000000, 148.000000
21861, 36.000000, 388.000000, 148.000000
21862, 40.000000, 388.000000, 148.000000
21863, 44.000000, 388.000000, 148.000000
21864, 48.000000, 388.000000, 148.000000
21865, 52.000000, 388.000000, 148.000000
21866, 56.000000, 388.000000, 148.000000
21867, 60.000000, 388.000000, 148.000000
21868, 64.000000, 388.000000, 148.000000
21869, 68.000000, 388.000000, 148.000000
21870, 72.000000, 388.000000, 148.000000
21871, 36.000000, 392.000000, 148.000000
21872, 40.000000, 392.000000, 148.000000
21873, 44.000000, 392.000000, 148.000000
21874, 48.000000, 392.000000, 148.000000
21875, 52.000000, 392.000000, 148.000000
21876, 56.000000, 392.000000, 148.000000
21877, 60.000000, 392.000000, 148.000000
21878, 64.000000, 392.000000, 148.000000
21879, 68.000000, 392.000000, 148.000000
21880, 72.000000, 392.000000, 148.000000
21881, 36.000000, 396.000000, 148.000000
21882, 40.000000, 396.000000, 148.000000
21883, 44.000000, 396.000000, 148.000000
21884, 48.000000, 396.000000, 148.000000
21885, 52.000000, 396.000000, 148.000000
21886, 56.000000, 396.000000, 148.000000
21887, 60.000000, 396.000000, 148.000000
21888, 64.000000, 396.000000, 148.000000
21889, 68.000000, 396.000000, 148.000000
21890, 72.000000, 396.000000, 148.000000
21891, 36.000000, 400.000000, 148.000000
21892, 40.000000, 400.000000, 148.000000
21893, 44.000000, 400.000000, 148.000000
21894, 48.000000, 400.000000, 148.000000
21895, 52.000000, 400.000000, 148.000000
21896, 56.000000, 400.000000, 148.000000
21897, 60.000000, 400.000000, 148.000000
21898, 64.000000, 400.000000, 148.000000
21899, 68.000000, 400.000000, 148.000000
21900, 72.000000, 400.000000, 148.000000
21901, 36.000000, 404.000000, 148.000000
21902, 40.000000, 404.000000, 148.000000
21903, 44.000000, 404.000000, 148.000000
21904, 48.000000, 404.000000, 148.000000
21905, 52.000000, 404.000000, 148.000000
21906, 56.000000, 404.000000, 148.000000
21907, 60.000000, 404.000000, 148.000000
21908, 64.000000, 404.000000, 148.000000
21909, 68.000000, 404.000000, 148.000000
21910, 72.000000, 404.000000, 148.000000
21911, 36.000000, 408.000000, 148.000000
21912, 40.000000, 408.000000, 148.000000
21913, 44.000000, 408.000000, 148.000000
21914, 48.000000, 408.000000, 148.000000
21915, 52.000000, 408.000000, 148.000000
21916, 56.000000, 408.000000, 148.000000
21917, 60.000000, 408.000000, 148.000000
21918, 64.000000, 408.000000, 148.000000
21919, 68.000000, 408.000000, 148.000000
21920, 72.000000, 408.000000, 148.000000
21921, 36.000000, 412.000000, 148.000000
21922, 40.000000, 412.000000, 148.000000
21923, 44.000000, 412.000000, 148.000000
21924, 48.000000, 412.000000, 148.000000
21925, 52.000000, 412.000000, 148.000000
21926, 56.000000, 412.000000, 148.000000
21927, 60.000000, 412.000000, 148.000000
21928, 64.000000, 412.000000, 148.000000
21929, 68.000000, 412.000000, 148.000000
21930, 72.000000, 412.000000, 148.000000
21931, 36.000000, 416.000000, 148.000000
21932, 40.000000, 416.000000, 148.000000
21933, 44.000000, 416.000000, 148.000000
21934, 48.000000, 416.000000, 148.000000
21935, 52.000000, 416.000000, 148.000000
21936, 56.000000, 416.000000, 148.000000
21937, 60.000000, 416.000000, 148.000000
21938, 64.000000, 416.000000, 148.000000
21939, 68.000000, 416.000000, 148.000000
21940, 72.000000, 416.000000, 148.000000
21941, 36.000000, 420.000000, 148.000000
21942, 40.000000, 420.000000, 148.000000
21943, 44.000000, 420.000000, 148.000000
21944, 48.000000, 420.000000, 148.000000
21945, 52.000000, 420.000000, 148.000000
21946, 56.000000, 420.000000, 148.000000
21947, 60.000000, 420.000000, 148.000000
21948, 64.000000, 420.000000, 148.000000
21949, 68.000000, 420.000000, 148.000000
21950, 72.000000, 420.000000, 148.000000
21951, 36.000000, 424.000000, 148.000000
21952, 40.000000, 424.000000, 148.000000
21953, 44.000000, 424.000000, 148.000000
21954, 48.000000, 424.000000, 148.000000
21955, 52.000000, 424.000000, 148.000000
21956, 56.000000, 424.000000, 148.000000
21957, 60.000000, 424.000000, 148.000000
21958, 64.000000, 424.000000, 148.000000
21959, 68.000000, 424.000000, 148.000000
21960, 72.000000, 424.000000, 148.000000
21961, 36.000000, 428.000000, 148.000000
21962, 40.000000, 428.000000, 148.000000
21963, 44.000000, 428.000000, 148.000000
21964, 48.000000, 428.000000, 148.000000
21965, 52.000000, 428.000000, 148.000000
21966, 56.000000, 428.000000, 148.000000
21967, 60.000000, 428.000000, 148.000000
21968, 64.000000, 428.000000, 148.000000
21969, 68.000000, 428.000000, 148.000000
21970, 72.000000, 428.000000, 148.000000
21971, 36.000000, 432.000000, 148.000000
21972, 40.000000, 432.000000, 148.000000
21973, 44.000000, 432.000000, 148.000000
21974, 48.000000, 432.000000, 148.000000
21975, 52.000000, 432.000000, 148.000000
21976, 56.000000, 432.000000, 148.000000
21977, 60.000000, 432.000000, 148.000000
21978, 64.000000, 432.000000, 148.000000
21979, 68.000000, 432.000000, 148.000000
21980, 72.000000, 432.000000, 148.000000
21981, 36.000000, 436.000000, 148.000000
21982, 40.000000, 436.000000, 148.000000
21983, 44.000000, 436.000000, 148.000000
21984, 48.000000, 436.000000, 148.000000
21985, 52.000000, 436.000000, 148.000000
21986, 56.000000, 436.000000, 148.000000
21987, 60.000000, 436.000000, 148.000000
21988, 64.000000, 436.000000, 148.000000
21989, 68.000000, 436.000000, 148.000000
21990, 72.000000, 436.000000, 148.000000
21991, 36.000000, 440.000000, 148.000000
21992, 40.000000, 440.000000, 148.000000
21993, 44.000000, 440.000000, 148.000000
21994, 48.000000, 440.000000, 148.000000
21995, 52.000000, 440.000000, 148.000000
21996, 56.000000, 440.000000, 148.000000
21997, 60.000000, 440.000000, 148.000000
21998, 64.000000, 440.000000, 148.000000
21999, 68.000000, 440.000000, 148.000000
22000, 72.000000, 440.000000, 148.000000
22001, 36.000000, 444.000000, 148.000000
22002, 40.000000, 444.000000, 148.000000
22003, 44.000000, 444.000000, 148.000000
22004, 48.000000, 444.000000, 148.000000
22005, 52.000000, 444.000000, 148.000000
22006, 56.000000, 444.000000, 148.000000
22007, 60.000000, 444.000000, 148.000000
22008, 64.000000, 444.000000, 148.000000
22009, 68.000000, 444.000000, 148.000000
22010, 72.000000, 444.000000, 148.000000
22011, 36.000000, 448.000000, 148.000000
22012, 40.000000, 448.000000, 148.000000
22013, 44.000000, 448.000000, 148.000000
22014, 48.000000, 448.000000, 148.000000
22015, 52.000000, 448.000000, 148.000000
22016, 56.000000, 448.000000, 148.000000
22017, 60.000000, 448.000000, 148.000000
22018, 64.000000, 448.000000, 148.000000
22019, 68.000000, 448.000000, 148.000000
22020, 72.000000, 448.000000, 148.000000
22021, 36.000000, 452.000000, 148.000000
22022, 40.000000, 452.000000, 148.000000
22023, 44.000000, 452.000000, 148.000000
22024, 48.000000, 452.000000, 148.000000
22025, 52.000000, 452.000000, 148.000000
22026, 56.000000, 452.000000, 148.000000
22027, 60.000000, 452.000000, 148.000000
22028, 64.000000, 452.000000, 148.000000
22029, 68.000000, 452.000000, 148.000000
22030, 72.000000, 452.000000, 148.000000
22031, 36.000000, 456.000000, 148.000000
22032, 40.000000, 456.000000, 148.000000
22033, 44.000000, 456.000000, 148.000000
22034, 48.000000, 456.000000, 148.000000
22035, 52.000000, 456.000000, 148.000000
22036, 56.000000, 456.000000, 148.000000
22037, 60.000000, 456.000000, 148.000000
22038, 64.000000, 456.000000, 148.000000
22039, 68.000000, 456.000000, 148.000000
22040, 72.000000, 456.000000, 148.000000
999999, 0.000000, 0.000000, 0.000000
**
** ----------------------------------------------------------------
**
